8000
pbc="T T T" Lattice="39.2571 0 0 0 39.2571 0 0 0 39.2571" Properties=species:S:1:pos:R:3:mass:R:1
Li 0 0 0 6.941
Li 0 0 3.92571 6.941
Li 0 0 7.85142 6.941
Li 0 0 11.7771 6.941
Li 0 0 15.7028 6.941
Li 0 0 19.6286 6.941
Li 0 0 23.5543 6.941
Li 0 0 27.48 6.941
Li 0 0 31.4057 6.941
Li 0 0 35.3314 6.941
Li 0 3.92571 0 6.941
Li 0 3.92571 3.92571 6.941
Li 0 3.92571 7.85142 6.941
Li 0 3.92571 11.7771 6.941
Li 0 3.92571 15.7028 6.941
Li 0 3.92571 19.6286 6.941
Li 0 3.92571 23.5543 6.941
Li 0 3.92571 27.48 6.941
Li 0 3.92571 31.4057 6.941
Li 0 3.92571 35.3314 6.941
Li 0 7.85142 0 6.941
Li 0 7.85142 3.92571 6.941
Li 0 7.85142 7.85142 6.941
Li 0 7.85142 11.7771 6.941
Li 0 7.85142 15.7028 6.941
Li 0 7.85142 19.6286 6.941
Li 0 7.85142 23.5543 6.941
Li 0 7.85142 27.48 6.941
Li 0 7.85142 31.4057 6.941
Li 0 7.85142 35.3314 6.941
Li 0 11.7771 0 6.941
Li 0 11.7771 3.92571 6.941
Li 0 11.7771 7.85142 6.941
Li 0 11.7771 11.7771 6.941
Li 0 11.7771 15.7028 6.941
Li 0 11.7771 19.6286 6.941
Li 0 11.7771 23.5543 6.941
Li 0 11.7771 27.48 6.941
Li 0 11.7771 31.4057 6.941
Li 0 11.7771 35.3314 6.941
Li 0 15.7028 0 6.941
Li 0 15.7028 3.92571 6.941
Li 0 15.7028 7.85142 6.941
Li 0 15.7028 11.7771 6.941
Li 0 15.7028 15.7028 6.941
Li 0 15.7028 19.6286 6.941
Li 0 15.7028 23.5543 6.941
Li 0 15.7028 27.48 6.941
Li 0 15.7028 31.4057 6.941
Li 0 15.7028 35.3314 6.941
Li 0 19.6286 0 6.941
Li 0 19.6286 3.92571 6.941
Li 0 19.6286 7.85142 6.941
Li 0 19.6286 11.7771 6.941
Li 0 19.6286 15.7028 6.941
Li 0 19.6286 19.6286 6.941
Li 0 19.6286 23.5543 6.941
Li 0 19.6286 27.48 6.941
Li 0 19.6286 31.4057 6.941
Li 0 19.6286 35.3314 6.941
Li 0 23.5543 0 6.941
Li 0 23.5543 3.92571 6.941
Li 0 23.5543 7.85142 6.941
Li 0 23.5543 11.7771 6.941
Li 0 23.5543 15.7028 6.941
Li 0 23.5543 19.6286 6.941
Li 0 23.5543 23.5543 6.941
Li 0 23.5543 27.48 6.941
Li 0 23.5543 31.4057 6.941
Li 0 23.5543 35.3314 6.941
Li 0 27.48 0 6.941
Li 0 27.48 3.92571 6.941
Li 0 27.48 7.85142 6.941
Li 0 27.48 11.7771 6.941
Li 0 27.48 15.7028 6.941
Li 0 27.48 19.6286 6.941
Li 0 27.48 23.5543 6.941
Li 0 27.48 27.48 6.941
Li 0 27.48 31.4057 6.941
Li 0 27.48 35.3314 6.941
Li 0 31.4057 0 6.941
Li 0 31.4057 3.92571 6.941
Li 0 31.4057 7.85142 6.941
Li 0 31.4057 11.7771 6.941
Li 0 31.4057 15.7028 6.941
Li 0 31.4057 19.6286 6.941
Li 0 31.4057 23.5543 6.941
Li 0 31.4057 27.48 6.941
Li 0 31.4057 31.4057 6.941
Li 0 31.4057 35.3314 6.941
Li 0 35.3314 0 6.941
Li 0 35.3314 3.92571 6.941
Li 0 35.3314 7.85142 6.941
Li 0 35.3314 11.7771 6.941
Li 0 35.3314 15.7028 6.941
Li 0 35.3314 19.6286 6.941
Li 0 35.3314 23.5543 6.941
Li 0 35.3314 27.48 6.941
Li 0 35.3314 31.4057 6.941
Li 0 35.3314 35.3314 6.941
Li 3.92571 0 0 6.941
Li 3.92571 0 3.92571 6.941
Li 3.92571 0 7.85142 6.941
Li 3.92571 0 11.7771 6.941
Li 3.92571 0 15.7028 6.941
Li 3.92571 0 19.6286 6.941
Li 3.92571 0 23.5543 6.941
Li 3.92571 0 27.48 6.941
Li 3.92571 0 31.4057 6.941
Li 3.92571 0 35.3314 6.941
Li 3.92571 3.92571 0 6.941
Li 3.92571 3.92571 3.92571 6.941
Li 3.92571 3.92571 7.85142 6.941
Li 3.92571 3.92571 11.7771 6.941
Li 3.92571 3.92571 15.7028 6.941
Li 3.92571 3.92571 19.6286 6.941
Li 3.92571 3.92571 23.5543 6.941
Li 3.92571 3.92571 27.48 6.941
Li 3.92571 3.92571 31.4057 6.941
Li 3.92571 3.92571 35.3314 6.941
Li 3.92571 7.85142 0 6.941
Li 3.92571 7.85142 3.92571 6.941
Li 3.92571 7.85142 7.85142 6.941
Li 3.92571 7.85142 11.7771 6.941
Li 3.92571 7.85142 15.7028 6.941
Li 3.92571 7.85142 19.6286 6.941
Li 3.92571 7.85142 23.5543 6.941
Li 3.92571 7.85142 27.48 6.941
Li 3.92571 7.85142 31.4057 6.941
Li 3.92571 7.85142 35.3314 6.941
Li 3.92571 11.7771 0 6.941
Li 3.92571 11.7771 3.92571 6.941
Li 3.92571 11.7771 7.85142 6.941
Li 3.92571 11.7771 11.7771 6.941
Li 3.92571 11.7771 15.7028 6.941
Li 3.92571 11.7771 19.6286 6.941
Li 3.92571 11.7771 23.5543 6.941
Li 3.92571 11.7771 27.48 6.941
Li 3.92571 11.7771 31.4057 6.941
Li 3.92571 11.7771 35.3314 6.941
Li 3.92571 15.7028 0 6.941
Li 3.92571 15.7028 3.92571 6.941
Li 3.92571 15.7028 7.85142 6.941
Li 3.92571 15.7028 11.7771 6.941
Li 3.92571 15.7028 15.7028 6.941
Li 3.92571 15.7028 19.6286 6.941
Li 3.92571 15.7028 23.5543 6.941
Li 3.92571 15.7028 27.48 6.941
Li 3.92571 15.7028 31.4057 6.941
Li 3.92571 15.7028 35.3314 6.941
Li 3.92571 19.6286 0 6.941
Li 3.92571 19.6286 3.92571 6.941
Li 3.92571 19.6286 7.85142 6.941
Li 3.92571 19.6286 11.7771 6.941
Li 3.92571 19.6286 15.7028 6.941
Li 3.92571 19.6286 19.6286 6.941
Li 3.92571 19.6286 23.5543 6.941
Li 3.92571 19.6286 27.48 6.941
Li 3.92571 19.6286 31.4057 6.941
Li 3.92571 19.6286 35.3314 6.941
Li 3.92571 23.5543 0 6.941
Li 3.92571 23.5543 3.92571 6.941
Li 3.92571 23.5543 7.85142 6.941
Li 3.92571 23.5543 11.7771 6.941
Li 3.92571 23.5543 15.7028 6.941
Li 3.92571 23.5543 19.6286 6.941
Li 3.92571 23.5543 23.5543 6.941
Li 3.92571 23.5543 27.48 6.941
Li 3.92571 23.5543 31.4057 6.941
Li 3.92571 23.5543 35.3314 6.941
Li 3.92571 27.48 0 6.941
Li 3.92571 27.48 3.92571 6.941
Li 3.92571 27.48 7.85142 6.941
Li 3.92571 27.48 11.7771 6.941
Li 3.92571 27.48 15.7028 6.941
Li 3.92571 27.48 19.6286 6.941
Li 3.92571 27.48 23.5543 6.941
Li 3.92571 27.48 27.48 6.941
Li 3.92571 27.48 31.4057 6.941
Li 3.92571 27.48 35.3314 6.941
Li 3.92571 31.4057 0 6.941
Li 3.92571 31.4057 3.92571 6.941
Li 3.92571 31.4057 7.85142 6.941
Li 3.92571 31.4057 11.7771 6.941
Li 3.92571 31.4057 15.7028 6.941
Li 3.92571 31.4057 19.6286 6.941
Li 3.92571 31.4057 23.5543 6.941
Li 3.92571 31.4057 27.48 6.941
Li 3.92571 31.4057 31.4057 6.941
Li 3.92571 31.4057 35.3314 6.941
Li 3.92571 35.3314 0 6.941
Li 3.92571 35.3314 3.92571 6.941
Li 3.92571 35.3314 7.85142 6.941
Li 3.92571 35.3314 11.7771 6.941
Li 3.92571 35.3314 15.7028 6.941
Li 3.92571 35.3314 19.6286 6.941
Li 3.92571 35.3314 23.5543 6.941
Li 3.92571 35.3314 27.48 6.941
Li 3.92571 35.3314 31.4057 6.941
Li 3.92571 35.3314 35.3314 6.941
Li 7.85142 0 0 6.941
Li 7.85142 0 3.92571 6.941
Li 7.85142 0 7.85142 6.941
Li 7.85142 0 11.7771 6.941
Li 7.85142 0 15.7028 6.941
Li 7.85142 0 19.6286 6.941
Li 7.85142 0 23.5543 6.941
Li 7.85142 0 27.48 6.941
Li 7.85142 0 31.4057 6.941
Li 7.85142 0 35.3314 6.941
Li 7.85142 3.92571 0 6.941
Li 7.85142 3.92571 3.92571 6.941
Li 7.85142 3.92571 7.85142 6.941
Li 7.85142 3.92571 11.7771 6.941
Li 7.85142 3.92571 15.7028 6.941
Li 7.85142 3.92571 19.6286 6.941
Li 7.85142 3.92571 23.5543 6.941
Li 7.85142 3.92571 27.48 6.941
Li 7.85142 3.92571 31.4057 6.941
Li 7.85142 3.92571 35.3314 6.941
Li 7.85142 7.85142 0 6.941
Li 7.85142 7.85142 3.92571 6.941
Li 7.85142 7.85142 7.85142 6.941
Li 7.85142 7.85142 11.7771 6.941
Li 7.85142 7.85142 15.7028 6.941
Li 7.85142 7.85142 19.6286 6.941
Li 7.85142 7.85142 23.5543 6.941
Li 7.85142 7.85142 27.48 6.941
Li 7.85142 7.85142 31.4057 6.941
Li 7.85142 7.85142 35.3314 6.941
Li 7.85142 11.7771 0 6.941
Li 7.85142 11.7771 3.92571 6.941
Li 7.85142 11.7771 7.85142 6.941
Li 7.85142 11.7771 11.7771 6.941
Li 7.85142 11.7771 15.7028 6.941
Li 7.85142 11.7771 19.6286 6.941
Li 7.85142 11.7771 23.5543 6.941
Li 7.85142 11.7771 27.48 6.941
Li 7.85142 11.7771 31.4057 6.941
Li 7.85142 11.7771 35.3314 6.941
Li 7.85142 15.7028 0 6.941
Li 7.85142 15.7028 3.92571 6.941
Li 7.85142 15.7028 7.85142 6.941
Li 7.85142 15.7028 11.7771 6.941
Li 7.85142 15.7028 15.7028 6.941
Li 7.85142 15.7028 19.6286 6.941
Li 7.85142 15.7028 23.5543 6.941
Li 7.85142 15.7028 27.48 6.941
Li 7.85142 15.7028 31.4057 6.941
Li 7.85142 15.7028 35.3314 6.941
Li 7.85142 19.6286 0 6.941
Li 7.85142 19.6286 3.92571 6.941
Li 7.85142 19.6286 7.85142 6.941
Li 7.85142 19.6286 11.7771 6.941
Li 7.85142 19.6286 15.7028 6.941
Li 7.85142 19.6286 19.6286 6.941
Li 7.85142 19.6286 23.5543 6.941
Li 7.85142 19.6286 27.48 6.941
Li 7.85142 19.6286 31.4057 6.941
Li 7.85142 19.6286 35.3314 6.941
Li 7.85142 23.5543 0 6.941
Li 7.85142 23.5543 3.92571 6.941
Li 7.85142 23.5543 7.85142 6.941
Li 7.85142 23.5543 11.7771 6.941
Li 7.85142 23.5543 15.7028 6.941
Li 7.85142 23.5543 19.6286 6.941
Li 7.85142 23.5543 23.5543 6.941
Li 7.85142 23.5543 27.48 6.941
Li 7.85142 23.5543 31.4057 6.941
Li 7.85142 23.5543 35.3314 6.941
Li 7.85142 27.48 0 6.941
Li 7.85142 27.48 3.92571 6.941
Li 7.85142 27.48 7.85142 6.941
Li 7.85142 27.48 11.7771 6.941
Li 7.85142 27.48 15.7028 6.941
Li 7.85142 27.48 19.6286 6.941
Li 7.85142 27.48 23.5543 6.941
Li 7.85142 27.48 27.48 6.941
Li 7.85142 27.48 31.4057 6.941
Li 7.85142 27.48 35.3314 6.941
Li 7.85142 31.4057 0 6.941
Li 7.85142 31.4057 3.92571 6.941
Li 7.85142 31.4057 7.85142 6.941
Li 7.85142 31.4057 11.7771 6.941
Li 7.85142 31.4057 15.7028 6.941
Li 7.85142 31.4057 19.6286 6.941
Li 7.85142 31.4057 23.5543 6.941
Li 7.85142 31.4057 27.48 6.941
Li 7.85142 31.4057 31.4057 6.941
Li 7.85142 31.4057 35.3314 6.941
Li 7.85142 35.3314 0 6.941
Li 7.85142 35.3314 3.92571 6.941
Li 7.85142 35.3314 7.85142 6.941
Li 7.85142 35.3314 11.7771 6.941
Li 7.85142 35.3314 15.7028 6.941
Li 7.85142 35.3314 19.6286 6.941
Li 7.85142 35.3314 23.5543 6.941
Li 7.85142 35.3314 27.48 6.941
Li 7.85142 35.3314 31.4057 6.941
Li 7.85142 35.3314 35.3314 6.941
Li 11.7771 0 0 6.941
Li 11.7771 0 3.92571 6.941
Li 11.7771 0 7.85142 6.941
Li 11.7771 0 11.7771 6.941
Li 11.7771 0 15.7028 6.941
Li 11.7771 0 19.6286 6.941
Li 11.7771 0 23.5543 6.941
Li 11.7771 0 27.48 6.941
Li 11.7771 0 31.4057 6.941
Li 11.7771 0 35.3314 6.941
Li 11.7771 3.92571 0 6.941
Li 11.7771 3.92571 3.92571 6.941
Li 11.7771 3.92571 7.85142 6.941
Li 11.7771 3.92571 11.7771 6.941
Li 11.7771 3.92571 15.7028 6.941
Li 11.7771 3.92571 19.6286 6.941
Li 11.7771 3.92571 23.5543 6.941
Li 11.7771 3.92571 27.48 6.941
Li 11.7771 3.92571 31.4057 6.941
Li 11.7771 3.92571 35.3314 6.941
Li 11.7771 7.85142 0 6.941
Li 11.7771 7.85142 3.92571 6.941
Li 11.7771 7.85142 7.85142 6.941
Li 11.7771 7.85142 11.7771 6.941
Li 11.7771 7.85142 15.7028 6.941
Li 11.7771 7.85142 19.6286 6.941
Li 11.7771 7.85142 23.5543 6.941
Li 11.7771 7.85142 27.48 6.941
Li 11.7771 7.85142 31.4057 6.941
Li 11.7771 7.85142 35.3314 6.941
Li 11.7771 11.7771 0 6.941
Li 11.7771 11.7771 3.92571 6.941
Li 11.7771 11.7771 7.85142 6.941
Li 11.7771 11.7771 11.7771 6.941
Li 11.7771 11.7771 15.7028 6.941
Li 11.7771 11.7771 19.6286 6.941
Li 11.7771 11.7771 23.5543 6.941
Li 11.7771 11.7771 27.48 6.941
Li 11.7771 11.7771 31.4057 6.941
Li 11.7771 11.7771 35.3314 6.941
Li 11.7771 15.7028 0 6.941
Li 11.7771 15.7028 3.92571 6.941
Li 11.7771 15.7028 7.85142 6.941
Li 11.7771 15.7028 11.7771 6.941
Li 11.7771 15.7028 15.7028 6.941
Li 11.7771 15.7028 19.6286 6.941
Li 11.7771 15.7028 23.5543 6.941
Li 11.7771 15.7028 27.48 6.941
Li 11.7771 15.7028 31.4057 6.941
Li 11.7771 15.7028 35.3314 6.941
Li 11.7771 19.6286 0 6.941
Li 11.7771 19.6286 3.92571 6.941
Li 11.7771 19.6286 7.85142 6.941
Li 11.7771 19.6286 11.7771 6.941
Li 11.7771 19.6286 15.7028 6.941
Li 11.7771 19.6286 19.6286 6.941
Li 11.7771 19.6286 23.5543 6.941
Li 11.7771 19.6286 27.48 6.941
Li 11.7771 19.6286 31.4057 6.941
Li 11.7771 19.6286 35.3314 6.941
Li 11.7771 23.5543 0 6.941
Li 11.7771 23.5543 3.92571 6.941
Li 11.7771 23.5543 7.85142 6.941
Li 11.7771 23.5543 11.7771 6.941
Li 11.7771 23.5543 15.7028 6.941
Li 11.7771 23.5543 19.6286 6.941
Li 11.7771 23.5543 23.5543 6.941
Li 11.7771 23.5543 27.48 6.941
Li 11.7771 23.5543 31.4057 6.941
Li 11.7771 23.5543 35.3314 6.941
Li 11.7771 27.48 0 6.941
Li 11.7771 27.48 3.92571 6.941
Li 11.7771 27.48 7.85142 6.941
Li 11.7771 27.48 11.7771 6.941
Li 11.7771 27.48 15.7028 6.941
Li 11.7771 27.48 19.6286 6.941
Li 11.7771 27.48 23.5543 6.941
Li 11.7771 27.48 27.48 6.941
Li 11.7771 27.48 31.4057 6.941
Li 11.7771 27.48 35.3314 6.941
Li 11.7771 31.4057 0 6.941
Li 11.7771 31.4057 3.92571 6.941
Li 11.7771 31.4057 7.85142 6.941
Li 11.7771 31.4057 11.7771 6.941
Li 11.7771 31.4057 15.7028 6.941
Li 11.7771 31.4057 19.6286 6.941
Li 11.7771 31.4057 23.5543 6.941
Li 11.7771 31.4057 27.48 6.941
Li 11.7771 31.4057 31.4057 6.941
Li 11.7771 31.4057 35.3314 6.941
Li 11.7771 35.3314 0 6.941
Li 11.7771 35.3314 3.92571 6.941
Li 11.7771 35.3314 7.85142 6.941
Li 11.7771 35.3314 11.7771 6.941
Li 11.7771 35.3314 15.7028 6.941
Li 11.7771 35.3314 19.6286 6.941
Li 11.7771 35.3314 23.5543 6.941
Li 11.7771 35.3314 27.48 6.941
Li 11.7771 35.3314 31.4057 6.941
Li 11.7771 35.3314 35.3314 6.941
Li 15.7028 0 0 6.941
Li 15.7028 0 3.92571 6.941
Li 15.7028 0 7.85142 6.941
Li 15.7028 0 11.7771 6.941
Li 15.7028 0 15.7028 6.941
Li 15.7028 0 19.6286 6.941
Li 15.7028 0 23.5543 6.941
Li 15.7028 0 27.48 6.941
Li 15.7028 0 31.4057 6.941
Li 15.7028 0 35.3314 6.941
Li 15.7028 3.92571 0 6.941
Li 15.7028 3.92571 3.92571 6.941
Li 15.7028 3.92571 7.85142 6.941
Li 15.7028 3.92571 11.7771 6.941
Li 15.7028 3.92571 15.7028 6.941
Li 15.7028 3.92571 19.6286 6.941
Li 15.7028 3.92571 23.5543 6.941
Li 15.7028 3.92571 27.48 6.941
Li 15.7028 3.92571 31.4057 6.941
Li 15.7028 3.92571 35.3314 6.941
Li 15.7028 7.85142 0 6.941
Li 15.7028 7.85142 3.92571 6.941
Li 15.7028 7.85142 7.85142 6.941
Li 15.7028 7.85142 11.7771 6.941
Li 15.7028 7.85142 15.7028 6.941
Li 15.7028 7.85142 19.6286 6.941
Li 15.7028 7.85142 23.5543 6.941
Li 15.7028 7.85142 27.48 6.941
Li 15.7028 7.85142 31.4057 6.941
Li 15.7028 7.85142 35.3314 6.941
Li 15.7028 11.7771 0 6.941
Li 15.7028 11.7771 3.92571 6.941
Li 15.7028 11.7771 7.85142 6.941
Li 15.7028 11.7771 11.7771 6.941
Li 15.7028 11.7771 15.7028 6.941
Li 15.7028 11.7771 19.6286 6.941
Li 15.7028 11.7771 23.5543 6.941
Li 15.7028 11.7771 27.48 6.941
Li 15.7028 11.7771 31.4057 6.941
Li 15.7028 11.7771 35.3314 6.941
Li 15.7028 15.7028 0 6.941
Li 15.7028 15.7028 3.92571 6.941
Li 15.7028 15.7028 7.85142 6.941
Li 15.7028 15.7028 11.7771 6.941
Li 15.7028 15.7028 15.7028 6.941
Li 15.7028 15.7028 19.6286 6.941
Li 15.7028 15.7028 23.5543 6.941
Li 15.7028 15.7028 27.48 6.941
Li 15.7028 15.7028 31.4057 6.941
Li 15.7028 15.7028 35.3314 6.941
Li 15.7028 19.6286 0 6.941
Li 15.7028 19.6286 3.92571 6.941
Li 15.7028 19.6286 7.85142 6.941
Li 15.7028 19.6286 11.7771 6.941
Li 15.7028 19.6286 15.7028 6.941
Li 15.7028 19.6286 19.6286 6.941
Li 15.7028 19.6286 23.5543 6.941
Li 15.7028 19.6286 27.48 6.941
Li 15.7028 19.6286 31.4057 6.941
Li 15.7028 19.6286 35.3314 6.941
Li 15.7028 23.5543 0 6.941
Li 15.7028 23.5543 3.92571 6.941
Li 15.7028 23.5543 7.85142 6.941
Li 15.7028 23.5543 11.7771 6.941
Li 15.7028 23.5543 15.7028 6.941
Li 15.7028 23.5543 19.6286 6.941
Li 15.7028 23.5543 23.5543 6.941
Li 15.7028 23.5543 27.48 6.941
Li 15.7028 23.5543 31.4057 6.941
Li 15.7028 23.5543 35.3314 6.941
Li 15.7028 27.48 0 6.941
Li 15.7028 27.48 3.92571 6.941
Li 15.7028 27.48 7.85142 6.941
Li 15.7028 27.48 11.7771 6.941
Li 15.7028 27.48 15.7028 6.941
Li 15.7028 27.48 19.6286 6.941
Li 15.7028 27.48 23.5543 6.941
Li 15.7028 27.48 27.48 6.941
Li 15.7028 27.48 31.4057 6.941
Li 15.7028 27.48 35.3314 6.941
Li 15.7028 31.4057 0 6.941
Li 15.7028 31.4057 3.92571 6.941
Li 15.7028 31.4057 7.85142 6.941
Li 15.7028 31.4057 11.7771 6.941
Li 15.7028 31.4057 15.7028 6.941
Li 15.7028 31.4057 19.6286 6.941
Li 15.7028 31.4057 23.5543 6.941
Li 15.7028 31.4057 27.48 6.941
Li 15.7028 31.4057 31.4057 6.941
Li 15.7028 31.4057 35.3314 6.941
Li 15.7028 35.3314 0 6.941
Li 15.7028 35.3314 3.92571 6.941
Li 15.7028 35.3314 7.85142 6.941
Li 15.7028 35.3314 11.7771 6.941
Li 15.7028 35.3314 15.7028 6.941
Li 15.7028 35.3314 19.6286 6.941
Li 15.7028 35.3314 23.5543 6.941
Li 15.7028 35.3314 27.48 6.941
Li 15.7028 35.3314 31.4057 6.941
Li 15.7028 35.3314 35.3314 6.941
Li 19.6286 0 0 6.941
Li 19.6286 0 3.92571 6.941
Li 19.6286 0 7.85142 6.941
Li 19.6286 0 11.7771 6.941
Li 19.6286 0 15.7028 6.941
Li 19.6286 0 19.6286 6.941
Li 19.6286 0 23.5543 6.941
Li 19.6286 0 27.48 6.941
Li 19.6286 0 31.4057 6.941
Li 19.6286 0 35.3314 6.941
Li 19.6286 3.92571 0 6.941
Li 19.6286 3.92571 3.92571 6.941
Li 19.6286 3.92571 7.85142 6.941
Li 19.6286 3.92571 11.7771 6.941
Li 19.6286 3.92571 15.7028 6.941
Li 19.6286 3.92571 19.6286 6.941
Li 19.6286 3.92571 23.5543 6.941
Li 19.6286 3.92571 27.48 6.941
Li 19.6286 3.92571 31.4057 6.941
Li 19.6286 3.92571 35.3314 6.941
Li 19.6286 7.85142 0 6.941
Li 19.6286 7.85142 3.92571 6.941
Li 19.6286 7.85142 7.85142 6.941
Li 19.6286 7.85142 11.7771 6.941
Li 19.6286 7.85142 15.7028 6.941
Li 19.6286 7.85142 19.6286 6.941
Li 19.6286 7.85142 23.5543 6.941
Li 19.6286 7.85142 27.48 6.941
Li 19.6286 7.85142 31.4057 6.941
Li 19.6286 7.85142 35.3314 6.941
Li 19.6286 11.7771 0 6.941
Li 19.6286 11.7771 3.92571 6.941
Li 19.6286 11.7771 7.85142 6.941
Li 19.6286 11.7771 11.7771 6.941
Li 19.6286 11.7771 15.7028 6.941
Li 19.6286 11.7771 19.6286 6.941
Li 19.6286 11.7771 23.5543 6.941
Li 19.6286 11.7771 27.48 6.941
Li 19.6286 11.7771 31.4057 6.941
Li 19.6286 11.7771 35.3314 6.941
Li 19.6286 15.7028 0 6.941
Li 19.6286 15.7028 3.92571 6.941
Li 19.6286 15.7028 7.85142 6.941
Li 19.6286 15.7028 11.7771 6.941
Li 19.6286 15.7028 15.7028 6.941
Li 19.6286 15.7028 19.6286 6.941
Li 19.6286 15.7028 23.5543 6.941
Li 19.6286 15.7028 27.48 6.941
Li 19.6286 15.7028 31.4057 6.941
Li 19.6286 15.7028 35.3314 6.941
Li 19.6286 19.6286 0 6.941
Li 19.6286 19.6286 3.92571 6.941
Li 19.6286 19.6286 7.85142 6.941
Li 19.6286 19.6286 11.7771 6.941
Li 19.6286 19.6286 15.7028 6.941
Li 19.6286 19.6286 19.6286 6.941
Li 19.6286 19.6286 23.5543 6.941
Li 19.6286 19.6286 27.48 6.941
Li 19.6286 19.6286 31.4057 6.941
Li 19.6286 19.6286 35.3314 6.941
Li 19.6286 23.5543 0 6.941
Li 19.6286 23.5543 3.92571 6.941
Li 19.6286 23.5543 7.85142 6.941
Li 19.6286 23.5543 11.7771 6.941
Li 19.6286 23.5543 15.7028 6.941
Li 19.6286 23.5543 19.6286 6.941
Li 19.6286 23.5543 23.5543 6.941
Li 19.6286 23.5543 27.48 6.941
Li 19.6286 23.5543 31.4057 6.941
Li 19.6286 23.5543 35.3314 6.941
Li 19.6286 27.48 0 6.941
Li 19.6286 27.48 3.92571 6.941
Li 19.6286 27.48 7.85142 6.941
Li 19.6286 27.48 11.7771 6.941
Li 19.6286 27.48 15.7028 6.941
Li 19.6286 27.48 19.6286 6.941
Li 19.6286 27.48 23.5543 6.941
Li 19.6286 27.48 27.48 6.941
Li 19.6286 27.48 31.4057 6.941
Li 19.6286 27.48 35.3314 6.941
Li 19.6286 31.4057 0 6.941
Li 19.6286 31.4057 3.92571 6.941
Li 19.6286 31.4057 7.85142 6.941
Li 19.6286 31.4057 11.7771 6.941
Li 19.6286 31.4057 15.7028 6.941
Li 19.6286 31.4057 19.6286 6.941
Li 19.6286 31.4057 23.5543 6.941
Li 19.6286 31.4057 27.48 6.941
Li 19.6286 31.4057 31.4057 6.941
Li 19.6286 31.4057 35.3314 6.941
Li 19.6286 35.3314 0 6.941
Li 19.6286 35.3314 3.92571 6.941
Li 19.6286 35.3314 7.85142 6.941
Li 19.6286 35.3314 11.7771 6.941
Li 19.6286 35.3314 15.7028 6.941
Li 19.6286 35.3314 19.6286 6.941
Li 19.6286 35.3314 23.5543 6.941
Li 19.6286 35.3314 27.48 6.941
Li 19.6286 35.3314 31.4057 6.941
Li 19.6286 35.3314 35.3314 6.941
Li 23.5543 0 0 6.941
Li 23.5543 0 3.92571 6.941
Li 23.5543 0 7.85142 6.941
Li 23.5543 0 11.7771 6.941
Li 23.5543 0 15.7028 6.941
Li 23.5543 0 19.6286 6.941
Li 23.5543 0 23.5543 6.941
Li 23.5543 0 27.48 6.941
Li 23.5543 0 31.4057 6.941
Li 23.5543 0 35.3314 6.941
Li 23.5543 3.92571 0 6.941
Li 23.5543 3.92571 3.92571 6.941
Li 23.5543 3.92571 7.85142 6.941
Li 23.5543 3.92571 11.7771 6.941
Li 23.5543 3.92571 15.7028 6.941
Li 23.5543 3.92571 19.6286 6.941
Li 23.5543 3.92571 23.5543 6.941
Li 23.5543 3.92571 27.48 6.941
Li 23.5543 3.92571 31.4057 6.941
Li 23.5543 3.92571 35.3314 6.941
Li 23.5543 7.85142 0 6.941
Li 23.5543 7.85142 3.92571 6.941
Li 23.5543 7.85142 7.85142 6.941
Li 23.5543 7.85142 11.7771 6.941
Li 23.5543 7.85142 15.7028 6.941
Li 23.5543 7.85142 19.6286 6.941
Li 23.5543 7.85142 23.5543 6.941
Li 23.5543 7.85142 27.48 6.941
Li 23.5543 7.85142 31.4057 6.941
Li 23.5543 7.85142 35.3314 6.941
Li 23.5543 11.7771 0 6.941
Li 23.5543 11.7771 3.92571 6.941
Li 23.5543 11.7771 7.85142 6.941
Li 23.5543 11.7771 11.7771 6.941
Li 23.5543 11.7771 15.7028 6.941
Li 23.5543 11.7771 19.6286 6.941
Li 23.5543 11.7771 23.5543 6.941
Li 23.5543 11.7771 27.48 6.941
Li 23.5543 11.7771 31.4057 6.941
Li 23.5543 11.7771 35.3314 6.941
Li 23.5543 15.7028 0 6.941
Li 23.5543 15.7028 3.92571 6.941
Li 23.5543 15.7028 7.85142 6.941
Li 23.5543 15.7028 11.7771 6.941
Li 23.5543 15.7028 15.7028 6.941
Li 23.5543 15.7028 19.6286 6.941
Li 23.5543 15.7028 23.5543 6.941
Li 23.5543 15.7028 27.48 6.941
Li 23.5543 15.7028 31.4057 6.941
Li 23.5543 15.7028 35.3314 6.941
Li 23.5543 19.6286 0 6.941
Li 23.5543 19.6286 3.92571 6.941
Li 23.5543 19.6286 7.85142 6.941
Li 23.5543 19.6286 11.7771 6.941
Li 23.5543 19.6286 15.7028 6.941
Li 23.5543 19.6286 19.6286 6.941
Li 23.5543 19.6286 23.5543 6.941
Li 23.5543 19.6286 27.48 6.941
Li 23.5543 19.6286 31.4057 6.941
Li 23.5543 19.6286 35.3314 6.941
Li 23.5543 23.5543 0 6.941
Li 23.5543 23.5543 3.92571 6.941
Li 23.5543 23.5543 7.85142 6.941
Li 23.5543 23.5543 11.7771 6.941
Li 23.5543 23.5543 15.7028 6.941
Li 23.5543 23.5543 19.6286 6.941
Li 23.5543 23.5543 23.5543 6.941
Li 23.5543 23.5543 27.48 6.941
Li 23.5543 23.5543 31.4057 6.941
Li 23.5543 23.5543 35.3314 6.941
Li 23.5543 27.48 0 6.941
Li 23.5543 27.48 3.92571 6.941
Li 23.5543 27.48 7.85142 6.941
Li 23.5543 27.48 11.7771 6.941
Li 23.5543 27.48 15.7028 6.941
Li 23.5543 27.48 19.6286 6.941
Li 23.5543 27.48 23.5543 6.941
Li 23.5543 27.48 27.48 6.941
Li 23.5543 27.48 31.4057 6.941
Li 23.5543 27.48 35.3314 6.941
Li 23.5543 31.4057 0 6.941
Li 23.5543 31.4057 3.92571 6.941
Li 23.5543 31.4057 7.85142 6.941
Li 23.5543 31.4057 11.7771 6.941
Li 23.5543 31.4057 15.7028 6.941
Li 23.5543 31.4057 19.6286 6.941
Li 23.5543 31.4057 23.5543 6.941
Li 23.5543 31.4057 27.48 6.941
Li 23.5543 31.4057 31.4057 6.941
Li 23.5543 31.4057 35.3314 6.941
Li 23.5543 35.3314 0 6.941
Li 23.5543 35.3314 3.92571 6.941
Li 23.5543 35.3314 7.85142 6.941
Li 23.5543 35.3314 11.7771 6.941
Li 23.5543 35.3314 15.7028 6.941
Li 23.5543 35.3314 19.6286 6.941
Li 23.5543 35.3314 23.5543 6.941
Li 23.5543 35.3314 27.48 6.941
Li 23.5543 35.3314 31.4057 6.941
Li 23.5543 35.3314 35.3314 6.941
Li 27.48 0 0 6.941
Li 27.48 0 3.92571 6.941
Li 27.48 0 7.85142 6.941
Li 27.48 0 11.7771 6.941
Li 27.48 0 15.7028 6.941
Li 27.48 0 19.6286 6.941
Li 27.48 0 23.5543 6.941
Li 27.48 0 27.48 6.941
Li 27.48 0 31.4057 6.941
Li 27.48 0 35.3314 6.941
Li 27.48 3.92571 0 6.941
Li 27.48 3.92571 3.92571 6.941
Li 27.48 3.92571 7.85142 6.941
Li 27.48 3.92571 11.7771 6.941
Li 27.48 3.92571 15.7028 6.941
Li 27.48 3.92571 19.6286 6.941
Li 27.48 3.92571 23.5543 6.941
Li 27.48 3.92571 27.48 6.941
Li 27.48 3.92571 31.4057 6.941
Li 27.48 3.92571 35.3314 6.941
Li 27.48 7.85142 0 6.941
Li 27.48 7.85142 3.92571 6.941
Li 27.48 7.85142 7.85142 6.941
Li 27.48 7.85142 11.7771 6.941
Li 27.48 7.85142 15.7028 6.941
Li 27.48 7.85142 19.6286 6.941
Li 27.48 7.85142 23.5543 6.941
Li 27.48 7.85142 27.48 6.941
Li 27.48 7.85142 31.4057 6.941
Li 27.48 7.85142 35.3314 6.941
Li 27.48 11.7771 0 6.941
Li 27.48 11.7771 3.92571 6.941
Li 27.48 11.7771 7.85142 6.941
Li 27.48 11.7771 11.7771 6.941
Li 27.48 11.7771 15.7028 6.941
Li 27.48 11.7771 19.6286 6.941
Li 27.48 11.7771 23.5543 6.941
Li 27.48 11.7771 27.48 6.941
Li 27.48 11.7771 31.4057 6.941
Li 27.48 11.7771 35.3314 6.941
Li 27.48 15.7028 0 6.941
Li 27.48 15.7028 3.92571 6.941
Li 27.48 15.7028 7.85142 6.941
Li 27.48 15.7028 11.7771 6.941
Li 27.48 15.7028 15.7028 6.941
Li 27.48 15.7028 19.6286 6.941
Li 27.48 15.7028 23.5543 6.941
Li 27.48 15.7028 27.48 6.941
Li 27.48 15.7028 31.4057 6.941
Li 27.48 15.7028 35.3314 6.941
Li 27.48 19.6286 0 6.941
Li 27.48 19.6286 3.92571 6.941
Li 27.48 19.6286 7.85142 6.941
Li 27.48 19.6286 11.7771 6.941
Li 27.48 19.6286 15.7028 6.941
Li 27.48 19.6286 19.6286 6.941
Li 27.48 19.6286 23.5543 6.941
Li 27.48 19.6286 27.48 6.941
Li 27.48 19.6286 31.4057 6.941
Li 27.48 19.6286 35.3314 6.941
Li 27.48 23.5543 0 6.941
Li 27.48 23.5543 3.92571 6.941
Li 27.48 23.5543 7.85142 6.941
Li 27.48 23.5543 11.7771 6.941
Li 27.48 23.5543 15.7028 6.941
Li 27.48 23.5543 19.6286 6.941
Li 27.48 23.5543 23.5543 6.941
Li 27.48 23.5543 27.48 6.941
Li 27.48 23.5543 31.4057 6.941
Li 27.48 23.5543 35.3314 6.941
Li 27.48 27.48 0 6.941
Li 27.48 27.48 3.92571 6.941
Li 27.48 27.48 7.85142 6.941
Li 27.48 27.48 11.7771 6.941
Li 27.48 27.48 15.7028 6.941
Li 27.48 27.48 19.6286 6.941
Li 27.48 27.48 23.5543 6.941
Li 27.48 27.48 27.48 6.941
Li 27.48 27.48 31.4057 6.941
Li 27.48 27.48 35.3314 6.941
Li 27.48 31.4057 0 6.941
Li 27.48 31.4057 3.92571 6.941
Li 27.48 31.4057 7.85142 6.941
Li 27.48 31.4057 11.7771 6.941
Li 27.48 31.4057 15.7028 6.941
Li 27.48 31.4057 19.6286 6.941
Li 27.48 31.4057 23.5543 6.941
Li 27.48 31.4057 27.48 6.941
Li 27.48 31.4057 31.4057 6.941
Li 27.48 31.4057 35.3314 6.941
Li 27.48 35.3314 0 6.941
Li 27.48 35.3314 3.92571 6.941
Li 27.48 35.3314 7.85142 6.941
Li 27.48 35.3314 11.7771 6.941
Li 27.48 35.3314 15.7028 6.941
Li 27.48 35.3314 19.6286 6.941
Li 27.48 35.3314 23.5543 6.941
Li 27.48 35.3314 27.48 6.941
Li 27.48 35.3314 31.4057 6.941
Li 27.48 35.3314 35.3314 6.941
Li 31.4057 0 0 6.941
Li 31.4057 0 3.92571 6.941
Li 31.4057 0 7.85142 6.941
Li 31.4057 0 11.7771 6.941
Li 31.4057 0 15.7028 6.941
Li 31.4057 0 19.6286 6.941
Li 31.4057 0 23.5543 6.941
Li 31.4057 0 27.48 6.941
Li 31.4057 0 31.4057 6.941
Li 31.4057 0 35.3314 6.941
Li 31.4057 3.92571 0 6.941
Li 31.4057 3.92571 3.92571 6.941
Li 31.4057 3.92571 7.85142 6.941
Li 31.4057 3.92571 11.7771 6.941
Li 31.4057 3.92571 15.7028 6.941
Li 31.4057 3.92571 19.6286 6.941
Li 31.4057 3.92571 23.5543 6.941
Li 31.4057 3.92571 27.48 6.941
Li 31.4057 3.92571 31.4057 6.941
Li 31.4057 3.92571 35.3314 6.941
Li 31.4057 7.85142 0 6.941
Li 31.4057 7.85142 3.92571 6.941
Li 31.4057 7.85142 7.85142 6.941
Li 31.4057 7.85142 11.7771 6.941
Li 31.4057 7.85142 15.7028 6.941
Li 31.4057 7.85142 19.6286 6.941
Li 31.4057 7.85142 23.5543 6.941
Li 31.4057 7.85142 27.48 6.941
Li 31.4057 7.85142 31.4057 6.941
Li 31.4057 7.85142 35.3314 6.941
Li 31.4057 11.7771 0 6.941
Li 31.4057 11.7771 3.92571 6.941
Li 31.4057 11.7771 7.85142 6.941
Li 31.4057 11.7771 11.7771 6.941
Li 31.4057 11.7771 15.7028 6.941
Li 31.4057 11.7771 19.6286 6.941
Li 31.4057 11.7771 23.5543 6.941
Li 31.4057 11.7771 27.48 6.941
Li 31.4057 11.7771 31.4057 6.941
Li 31.4057 11.7771 35.3314 6.941
Li 31.4057 15.7028 0 6.941
Li 31.4057 15.7028 3.92571 6.941
Li 31.4057 15.7028 7.85142 6.941
Li 31.4057 15.7028 11.7771 6.941
Li 31.4057 15.7028 15.7028 6.941
Li 31.4057 15.7028 19.6286 6.941
Li 31.4057 15.7028 23.5543 6.941
Li 31.4057 15.7028 27.48 6.941
Li 31.4057 15.7028 31.4057 6.941
Li 31.4057 15.7028 35.3314 6.941
Li 31.4057 19.6286 0 6.941
Li 31.4057 19.6286 3.92571 6.941
Li 31.4057 19.6286 7.85142 6.941
Li 31.4057 19.6286 11.7771 6.941
Li 31.4057 19.6286 15.7028 6.941
Li 31.4057 19.6286 19.6286 6.941
Li 31.4057 19.6286 23.5543 6.941
Li 31.4057 19.6286 27.48 6.941
Li 31.4057 19.6286 31.4057 6.941
Li 31.4057 19.6286 35.3314 6.941
Li 31.4057 23.5543 0 6.941
Li 31.4057 23.5543 3.92571 6.941
Li 31.4057 23.5543 7.85142 6.941
Li 31.4057 23.5543 11.7771 6.941
Li 31.4057 23.5543 15.7028 6.941
Li 31.4057 23.5543 19.6286 6.941
Li 31.4057 23.5543 23.5543 6.941
Li 31.4057 23.5543 27.48 6.941
Li 31.4057 23.5543 31.4057 6.941
Li 31.4057 23.5543 35.3314 6.941
Li 31.4057 27.48 0 6.941
Li 31.4057 27.48 3.92571 6.941
Li 31.4057 27.48 7.85142 6.941
Li 31.4057 27.48 11.7771 6.941
Li 31.4057 27.48 15.7028 6.941
Li 31.4057 27.48 19.6286 6.941
Li 31.4057 27.48 23.5543 6.941
Li 31.4057 27.48 27.48 6.941
Li 31.4057 27.48 31.4057 6.941
Li 31.4057 27.48 35.3314 6.941
Li 31.4057 31.4057 0 6.941
Li 31.4057 31.4057 3.92571 6.941
Li 31.4057 31.4057 7.85142 6.941
Li 31.4057 31.4057 11.7771 6.941
Li 31.4057 31.4057 15.7028 6.941
Li 31.4057 31.4057 19.6286 6.941
Li 31.4057 31.4057 23.5543 6.941
Li 31.4057 31.4057 27.48 6.941
Li 31.4057 31.4057 31.4057 6.941
Li 31.4057 31.4057 35.3314 6.941
Li 31.4057 35.3314 0 6.941
Li 31.4057 35.3314 3.92571 6.941
Li 31.4057 35.3314 7.85142 6.941
Li 31.4057 35.3314 11.7771 6.941
Li 31.4057 35.3314 15.7028 6.941
Li 31.4057 35.3314 19.6286 6.941
Li 31.4057 35.3314 23.5543 6.941
Li 31.4057 35.3314 27.48 6.941
Li 31.4057 35.3314 31.4057 6.941
Li 31.4057 35.3314 35.3314 6.941
Li 35.3314 0 0 6.941
Li 35.3314 0 3.92571 6.941
Li 35.3314 0 7.85142 6.941
Li 35.3314 0 11.7771 6.941
Li 35.3314 0 15.7028 6.941
Li 35.3314 0 19.6286 6.941
Li 35.3314 0 23.5543 6.941
Li 35.3314 0 27.48 6.941
Li 35.3314 0 31.4057 6.941
Li 35.3314 0 35.3314 6.941
Li 35.3314 3.92571 0 6.941
Li 35.3314 3.92571 3.92571 6.941
Li 35.3314 3.92571 7.85142 6.941
Li 35.3314 3.92571 11.7771 6.941
Li 35.3314 3.92571 15.7028 6.941
Li 35.3314 3.92571 19.6286 6.941
Li 35.3314 3.92571 23.5543 6.941
Li 35.3314 3.92571 27.48 6.941
Li 35.3314 3.92571 31.4057 6.941
Li 35.3314 3.92571 35.3314 6.941
Li 35.3314 7.85142 0 6.941
Li 35.3314 7.85142 3.92571 6.941
Li 35.3314 7.85142 7.85142 6.941
Li 35.3314 7.85142 11.7771 6.941
Li 35.3314 7.85142 15.7028 6.941
Li 35.3314 7.85142 19.6286 6.941
Li 35.3314 7.85142 23.5543 6.941
Li 35.3314 7.85142 27.48 6.941
Li 35.3314 7.85142 31.4057 6.941
Li 35.3314 7.85142 35.3314 6.941
Li 35.3314 11.7771 0 6.941
Li 35.3314 11.7771 3.92571 6.941
Li 35.3314 11.7771 7.85142 6.941
Li 35.3314 11.7771 11.7771 6.941
Li 35.3314 11.7771 15.7028 6.941
Li 35.3314 11.7771 19.6286 6.941
Li 35.3314 11.7771 23.5543 6.941
Li 35.3314 11.7771 27.48 6.941
Li 35.3314 11.7771 31.4057 6.941
Li 35.3314 11.7771 35.3314 6.941
Li 35.3314 15.7028 0 6.941
Li 35.3314 15.7028 3.92571 6.941
Li 35.3314 15.7028 7.85142 6.941
Li 35.3314 15.7028 11.7771 6.941
Li 35.3314 15.7028 15.7028 6.941
Li 35.3314 15.7028 19.6286 6.941
Li 35.3314 15.7028 23.5543 6.941
Li 35.3314 15.7028 27.48 6.941
Li 35.3314 15.7028 31.4057 6.941
Li 35.3314 15.7028 35.3314 6.941
Li 35.3314 19.6286 0 6.941
Li 35.3314 19.6286 3.92571 6.941
Li 35.3314 19.6286 7.85142 6.941
Li 35.3314 19.6286 11.7771 6.941
Li 35.3314 19.6286 15.7028 6.941
Li 35.3314 19.6286 19.6286 6.941
Li 35.3314 19.6286 23.5543 6.941
Li 35.3314 19.6286 27.48 6.941
Li 35.3314 19.6286 31.4057 6.941
Li 35.3314 19.6286 35.3314 6.941
Li 35.3314 23.5543 0 6.941
Li 35.3314 23.5543 3.92571 6.941
Li 35.3314 23.5543 7.85142 6.941
Li 35.3314 23.5543 11.7771 6.941
Li 35.3314 23.5543 15.7028 6.941
Li 35.3314 23.5543 19.6286 6.941
Li 35.3314 23.5543 23.5543 6.941
Li 35.3314 23.5543 27.48 6.941
Li 35.3314 23.5543 31.4057 6.941
Li 35.3314 23.5543 35.3314 6.941
Li 35.3314 27.48 0 6.941
Li 35.3314 27.48 3.92571 6.941
Li 35.3314 27.48 7.85142 6.941
Li 35.3314 27.48 11.7771 6.941
Li 35.3314 27.48 15.7028 6.941
Li 35.3314 27.48 19.6286 6.941
Li 35.3314 27.48 23.5543 6.941
Li 35.3314 27.48 27.48 6.941
Li 35.3314 27.48 31.4057 6.941
Li 35.3314 27.48 35.3314 6.941
Li 35.3314 31.4057 0 6.941
Li 35.3314 31.4057 3.92571 6.941
Li 35.3314 31.4057 7.85142 6.941
Li 35.3314 31.4057 11.7771 6.941
Li 35.3314 31.4057 15.7028 6.941
Li 35.3314 31.4057 19.6286 6.941
Li 35.3314 31.4057 23.5543 6.941
Li 35.3314 31.4057 27.48 6.941
Li 35.3314 31.4057 31.4057 6.941
Li 35.3314 31.4057 35.3314 6.941
Li 35.3314 35.3314 0 6.941
Li 35.3314 35.3314 3.92571 6.941
Li 35.3314 35.3314 7.85142 6.941
Li 35.3314 35.3314 11.7771 6.941
Li 35.3314 35.3314 15.7028 6.941
Li 35.3314 35.3314 19.6286 6.941
Li 35.3314 35.3314 23.5543 6.941
Li 35.3314 35.3314 27.48 6.941
Li 35.3314 35.3314 31.4057 6.941
Li 35.3314 35.3314 35.3314 6.941
Li 0 1.96286 1.96286 6.941
Li 0 1.96286 5.88857 6.941
Li 0 1.96286 9.81428 6.941
Li 0 1.96286 13.74 6.941
Li 0 1.96286 17.6657 6.941
Li 0 1.96286 21.5914 6.941
Li 0 1.96286 25.5171 6.941
Li 0 1.96286 29.4428 6.941
Li 0 1.96286 33.3685 6.941
Li 0 1.96286 37.2943 6.941
Li 0 5.88857 1.96286 6.941
Li 0 5.88857 5.88857 6.941
Li 0 5.88857 9.81428 6.941
Li 0 5.88857 13.74 6.941
Li 0 5.88857 17.6657 6.941
Li 0 5.88857 21.5914 6.941
Li 0 5.88857 25.5171 6.941
Li 0 5.88857 29.4428 6.941
Li 0 5.88857 33.3685 6.941
Li 0 5.88857 37.2943 6.941
Li 0 9.81428 1.96286 6.941
Li 0 9.81428 5.88857 6.941
Li 0 9.81428 9.81428 6.941
Li 0 9.81428 13.74 6.941
Li 0 9.81428 17.6657 6.941
Li 0 9.81428 21.5914 6.941
Li 0 9.81428 25.5171 6.941
Li 0 9.81428 29.4428 6.941
Li 0 9.81428 33.3685 6.941
Li 0 9.81428 37.2943 6.941
Li 0 13.74 1.96286 6.941
Li 0 13.74 5.88857 6.941
Li 0 13.74 9.81428 6.941
Li 0 13.74 13.74 6.941
Li 0 13.74 17.6657 6.941
Li 0 13.74 21.5914 6.941
Li 0 13.74 25.5171 6.941
Li 0 13.74 29.4428 6.941
Li 0 13.74 33.3685 6.941
Li 0 13.74 37.2943 6.941
Li 0 17.6657 1.96286 6.941
Li 0 17.6657 5.88857 6.941
Li 0 17.6657 9.81428 6.941
Li 0 17.6657 13.74 6.941
Li 0 17.6657 17.6657 6.941
Li 0 17.6657 21.5914 6.941
Li 0 17.6657 25.5171 6.941
Li 0 17.6657 29.4428 6.941
Li 0 17.6657 33.3685 6.941
Li 0 17.6657 37.2943 6.941
Li 0 21.5914 1.96286 6.941
Li 0 21.5914 5.88857 6.941
Li 0 21.5914 9.81428 6.941
Li 0 21.5914 13.74 6.941
Li 0 21.5914 17.6657 6.941
Li 0 21.5914 21.5914 6.941
Li 0 21.5914 25.5171 6.941
Li 0 21.5914 29.4428 6.941
Li 0 21.5914 33.3685 6.941
Li 0 21.5914 37.2943 6.941
Li 0 25.5171 1.96286 6.941
Li 0 25.5171 5.88857 6.941
Li 0 25.5171 9.81428 6.941
Li 0 25.5171 13.74 6.941
Li 0 25.5171 17.6657 6.941
Li 0 25.5171 21.5914 6.941
Li 0 25.5171 25.5171 6.941
Li 0 25.5171 29.4428 6.941
Li 0 25.5171 33.3685 6.941
Li 0 25.5171 37.2943 6.941
Li 0 29.4428 1.96286 6.941
Li 0 29.4428 5.88857 6.941
Li 0 29.4428 9.81428 6.941
Li 0 29.4428 13.74 6.941
Li 0 29.4428 17.6657 6.941
Li 0 29.4428 21.5914 6.941
Li 0 29.4428 25.5171 6.941
Li 0 29.4428 29.4428 6.941
Li 0 29.4428 33.3685 6.941
Li 0 29.4428 37.2943 6.941
Li 0 33.3685 1.96286 6.941
Li 0 33.3685 5.88857 6.941
Li 0 33.3685 9.81428 6.941
Li 0 33.3685 13.74 6.941
Li 0 33.3685 17.6657 6.941
Li 0 33.3685 21.5914 6.941
Li 0 33.3685 25.5171 6.941
Li 0 33.3685 29.4428 6.941
Li 0 33.3685 33.3685 6.941
Li 0 33.3685 37.2943 6.941
Li 0 37.2943 1.96286 6.941
Li 0 37.2943 5.88857 6.941
Li 0 37.2943 9.81428 6.941
Li 0 37.2943 13.74 6.941
Li 0 37.2943 17.6657 6.941
Li 0 37.2943 21.5914 6.941
Li 0 37.2943 25.5171 6.941
Li 0 37.2943 29.4428 6.941
Li 0 37.2943 33.3685 6.941
Li 0 37.2943 37.2943 6.941
Li 3.92571 1.96286 1.96286 6.941
Li 3.92571 1.96286 5.88857 6.941
Li 3.92571 1.96286 9.81428 6.941
Li 3.92571 1.96286 13.74 6.941
Li 3.92571 1.96286 17.6657 6.941
Li 3.92571 1.96286 21.5914 6.941
Li 3.92571 1.96286 25.5171 6.941
Li 3.92571 1.96286 29.4428 6.941
Li 3.92571 1.96286 33.3685 6.941
Li 3.92571 1.96286 37.2943 6.941
Li 3.92571 5.88857 1.96286 6.941
Li 3.92571 5.88857 5.88857 6.941
Li 3.92571 5.88857 9.81428 6.941
Li 3.92571 5.88857 13.74 6.941
Li 3.92571 5.88857 17.6657 6.941
Li 3.92571 5.88857 21.5914 6.941
Li 3.92571 5.88857 25.5171 6.941
Li 3.92571 5.88857 29.4428 6.941
Li 3.92571 5.88857 33.3685 6.941
Li 3.92571 5.88857 37.2943 6.941
Li 3.92571 9.81428 1.96286 6.941
Li 3.92571 9.81428 5.88857 6.941
Li 3.92571 9.81428 9.81428 6.941
Li 3.92571 9.81428 13.74 6.941
Li 3.92571 9.81428 17.6657 6.941
Li 3.92571 9.81428 21.5914 6.941
Li 3.92571 9.81428 25.5171 6.941
Li 3.92571 9.81428 29.4428 6.941
Li 3.92571 9.81428 33.3685 6.941
Li 3.92571 9.81428 37.2943 6.941
Li 3.92571 13.74 1.96286 6.941
Li 3.92571 13.74 5.88857 6.941
Li 3.92571 13.74 9.81428 6.941
Li 3.92571 13.74 13.74 6.941
Li 3.92571 13.74 17.6657 6.941
Li 3.92571 13.74 21.5914 6.941
Li 3.92571 13.74 25.5171 6.941
Li 3.92571 13.74 29.4428 6.941
Li 3.92571 13.74 33.3685 6.941
Li 3.92571 13.74 37.2943 6.941
Li 3.92571 17.6657 1.96286 6.941
Li 3.92571 17.6657 5.88857 6.941
Li 3.92571 17.6657 9.81428 6.941
Li 3.92571 17.6657 13.74 6.941
Li 3.92571 17.6657 17.6657 6.941
Li 3.92571 17.6657 21.5914 6.941
Li 3.92571 17.6657 25.5171 6.941
Li 3.92571 17.6657 29.4428 6.941
Li 3.92571 17.6657 33.3685 6.941
Li 3.92571 17.6657 37.2943 6.941
Li 3.92571 21.5914 1.96286 6.941
Li 3.92571 21.5914 5.88857 6.941
Li 3.92571 21.5914 9.81428 6.941
Li 3.92571 21.5914 13.74 6.941
Li 3.92571 21.5914 17.6657 6.941
Li 3.92571 21.5914 21.5914 6.941
Li 3.92571 21.5914 25.5171 6.941
Li 3.92571 21.5914 29.4428 6.941
Li 3.92571 21.5914 33.3685 6.941
Li 3.92571 21.5914 37.2943 6.941
Li 3.92571 25.5171 1.96286 6.941
Li 3.92571 25.5171 5.88857 6.941
Li 3.92571 25.5171 9.81428 6.941
Li 3.92571 25.5171 13.74 6.941
Li 3.92571 25.5171 17.6657 6.941
Li 3.92571 25.5171 21.5914 6.941
Li 3.92571 25.5171 25.5171 6.941
Li 3.92571 25.5171 29.4428 6.941
Li 3.92571 25.5171 33.3685 6.941
Li 3.92571 25.5171 37.2943 6.941
Li 3.92571 29.4428 1.96286 6.941
Li 3.92571 29.4428 5.88857 6.941
Li 3.92571 29.4428 9.81428 6.941
Li 3.92571 29.4428 13.74 6.941
Li 3.92571 29.4428 17.6657 6.941
Li 3.92571 29.4428 21.5914 6.941
Li 3.92571 29.4428 25.5171 6.941
Li 3.92571 29.4428 29.4428 6.941
Li 3.92571 29.4428 33.3685 6.941
Li 3.92571 29.4428 37.2943 6.941
Li 3.92571 33.3685 1.96286 6.941
Li 3.92571 33.3685 5.88857 6.941
Li 3.92571 33.3685 9.81428 6.941
Li 3.92571 33.3685 13.74 6.941
Li 3.92571 33.3685 17.6657 6.941
Li 3.92571 33.3685 21.5914 6.941
Li 3.92571 33.3685 25.5171 6.941
Li 3.92571 33.3685 29.4428 6.941
Li 3.92571 33.3685 33.3685 6.941
Li 3.92571 33.3685 37.2943 6.941
Li 3.92571 37.2943 1.96286 6.941
Li 3.92571 37.2943 5.88857 6.941
Li 3.92571 37.2943 9.81428 6.941
Li 3.92571 37.2943 13.74 6.941
Li 3.92571 37.2943 17.6657 6.941
Li 3.92571 37.2943 21.5914 6.941
Li 3.92571 37.2943 25.5171 6.941
Li 3.92571 37.2943 29.4428 6.941
Li 3.92571 37.2943 33.3685 6.941
Li 3.92571 37.2943 37.2943 6.941
Li 7.85142 1.96286 1.96286 6.941
Li 7.85142 1.96286 5.88857 6.941
Li 7.85142 1.96286 9.81428 6.941
Li 7.85142 1.96286 13.74 6.941
Li 7.85142 1.96286 17.6657 6.941
Li 7.85142 1.96286 21.5914 6.941
Li 7.85142 1.96286 25.5171 6.941
Li 7.85142 1.96286 29.4428 6.941
Li 7.85142 1.96286 33.3685 6.941
Li 7.85142 1.96286 37.2943 6.941
Li 7.85142 5.88857 1.96286 6.941
Li 7.85142 5.88857 5.88857 6.941
Li 7.85142 5.88857 9.81428 6.941
Li 7.85142 5.88857 13.74 6.941
Li 7.85142 5.88857 17.6657 6.941
Li 7.85142 5.88857 21.5914 6.941
Li 7.85142 5.88857 25.5171 6.941
Li 7.85142 5.88857 29.4428 6.941
Li 7.85142 5.88857 33.3685 6.941
Li 7.85142 5.88857 37.2943 6.941
Li 7.85142 9.81428 1.96286 6.941
Li 7.85142 9.81428 5.88857 6.941
Li 7.85142 9.81428 9.81428 6.941
Li 7.85142 9.81428 13.74 6.941
Li 7.85142 9.81428 17.6657 6.941
Li 7.85142 9.81428 21.5914 6.941
Li 7.85142 9.81428 25.5171 6.941
Li 7.85142 9.81428 29.4428 6.941
Li 7.85142 9.81428 33.3685 6.941
Li 7.85142 9.81428 37.2943 6.941
Li 7.85142 13.74 1.96286 6.941
Li 7.85142 13.74 5.88857 6.941
Li 7.85142 13.74 9.81428 6.941
Li 7.85142 13.74 13.74 6.941
Li 7.85142 13.74 17.6657 6.941
Li 7.85142 13.74 21.5914 6.941
Li 7.85142 13.74 25.5171 6.941
Li 7.85142 13.74 29.4428 6.941
Li 7.85142 13.74 33.3685 6.941
Li 7.85142 13.74 37.2943 6.941
Li 7.85142 17.6657 1.96286 6.941
Li 7.85142 17.6657 5.88857 6.941
Li 7.85142 17.6657 9.81428 6.941
Li 7.85142 17.6657 13.74 6.941
Li 7.85142 17.6657 17.6657 6.941
Li 7.85142 17.6657 21.5914 6.941
Li 7.85142 17.6657 25.5171 6.941
Li 7.85142 17.6657 29.4428 6.941
Li 7.85142 17.6657 33.3685 6.941
Li 7.85142 17.6657 37.2943 6.941
Li 7.85142 21.5914 1.96286 6.941
Li 7.85142 21.5914 5.88857 6.941
Li 7.85142 21.5914 9.81428 6.941
Li 7.85142 21.5914 13.74 6.941
Li 7.85142 21.5914 17.6657 6.941
Li 7.85142 21.5914 21.5914 6.941
Li 7.85142 21.5914 25.5171 6.941
Li 7.85142 21.5914 29.4428 6.941
Li 7.85142 21.5914 33.3685 6.941
Li 7.85142 21.5914 37.2943 6.941
Li 7.85142 25.5171 1.96286 6.941
Li 7.85142 25.5171 5.88857 6.941
Li 7.85142 25.5171 9.81428 6.941
Li 7.85142 25.5171 13.74 6.941
Li 7.85142 25.5171 17.6657 6.941
Li 7.85142 25.5171 21.5914 6.941
Li 7.85142 25.5171 25.5171 6.941
Li 7.85142 25.5171 29.4428 6.941
Li 7.85142 25.5171 33.3685 6.941
Li 7.85142 25.5171 37.2943 6.941
Li 7.85142 29.4428 1.96286 6.941
Li 7.85142 29.4428 5.88857 6.941
Li 7.85142 29.4428 9.81428 6.941
Li 7.85142 29.4428 13.74 6.941
Li 7.85142 29.4428 17.6657 6.941
Li 7.85142 29.4428 21.5914 6.941
Li 7.85142 29.4428 25.5171 6.941
Li 7.85142 29.4428 29.4428 6.941
Li 7.85142 29.4428 33.3685 6.941
Li 7.85142 29.4428 37.2943 6.941
Li 7.85142 33.3685 1.96286 6.941
Li 7.85142 33.3685 5.88857 6.941
Li 7.85142 33.3685 9.81428 6.941
Li 7.85142 33.3685 13.74 6.941
Li 7.85142 33.3685 17.6657 6.941
Li 7.85142 33.3685 21.5914 6.941
Li 7.85142 33.3685 25.5171 6.941
Li 7.85142 33.3685 29.4428 6.941
Li 7.85142 33.3685 33.3685 6.941
Li 7.85142 33.3685 37.2943 6.941
Li 7.85142 37.2943 1.96286 6.941
Li 7.85142 37.2943 5.88857 6.941
Li 7.85142 37.2943 9.81428 6.941
Li 7.85142 37.2943 13.74 6.941
Li 7.85142 37.2943 17.6657 6.941
Li 7.85142 37.2943 21.5914 6.941
Li 7.85142 37.2943 25.5171 6.941
Li 7.85142 37.2943 29.4428 6.941
Li 7.85142 37.2943 33.3685 6.941
Li 7.85142 37.2943 37.2943 6.941
Li 11.7771 1.96286 1.96286 6.941
Li 11.7771 1.96286 5.88857 6.941
Li 11.7771 1.96286 9.81428 6.941
Li 11.7771 1.96286 13.74 6.941
Li 11.7771 1.96286 17.6657 6.941
Li 11.7771 1.96286 21.5914 6.941
Li 11.7771 1.96286 25.5171 6.941
Li 11.7771 1.96286 29.4428 6.941
Li 11.7771 1.96286 33.3685 6.941
Li 11.7771 1.96286 37.2943 6.941
Li 11.7771 5.88857 1.96286 6.941
Li 11.7771 5.88857 5.88857 6.941
Li 11.7771 5.88857 9.81428 6.941
Li 11.7771 5.88857 13.74 6.941
Li 11.7771 5.88857 17.6657 6.941
Li 11.7771 5.88857 21.5914 6.941
Li 11.7771 5.88857 25.5171 6.941
Li 11.7771 5.88857 29.4428 6.941
Li 11.7771 5.88857 33.3685 6.941
Li 11.7771 5.88857 37.2943 6.941
Li 11.7771 9.81428 1.96286 6.941
Li 11.7771 9.81428 5.88857 6.941
Li 11.7771 9.81428 9.81428 6.941
Li 11.7771 9.81428 13.74 6.941
Li 11.7771 9.81428 17.6657 6.941
Li 11.7771 9.81428 21.5914 6.941
Li 11.7771 9.81428 25.5171 6.941
Li 11.7771 9.81428 29.4428 6.941
Li 11.7771 9.81428 33.3685 6.941
Li 11.7771 9.81428 37.2943 6.941
Li 11.7771 13.74 1.96286 6.941
Li 11.7771 13.74 5.88857 6.941
Li 11.7771 13.74 9.81428 6.941
Li 11.7771 13.74 13.74 6.941
Li 11.7771 13.74 17.6657 6.941
Li 11.7771 13.74 21.5914 6.941
Li 11.7771 13.74 25.5171 6.941
Li 11.7771 13.74 29.4428 6.941
Li 11.7771 13.74 33.3685 6.941
Li 11.7771 13.74 37.2943 6.941
Li 11.7771 17.6657 1.96286 6.941
Li 11.7771 17.6657 5.88857 6.941
Li 11.7771 17.6657 9.81428 6.941
Li 11.7771 17.6657 13.74 6.941
Li 11.7771 17.6657 17.6657 6.941
Li 11.7771 17.6657 21.5914 6.941
Li 11.7771 17.6657 25.5171 6.941
Li 11.7771 17.6657 29.4428 6.941
Li 11.7771 17.6657 33.3685 6.941
Li 11.7771 17.6657 37.2943 6.941
Li 11.7771 21.5914 1.96286 6.941
Li 11.7771 21.5914 5.88857 6.941
Li 11.7771 21.5914 9.81428 6.941
Li 11.7771 21.5914 13.74 6.941
Li 11.7771 21.5914 17.6657 6.941
Li 11.7771 21.5914 21.5914 6.941
Li 11.7771 21.5914 25.5171 6.941
Li 11.7771 21.5914 29.4428 6.941
Li 11.7771 21.5914 33.3685 6.941
Li 11.7771 21.5914 37.2943 6.941
Li 11.7771 25.5171 1.96286 6.941
Li 11.7771 25.5171 5.88857 6.941
Li 11.7771 25.5171 9.81428 6.941
Li 11.7771 25.5171 13.74 6.941
Li 11.7771 25.5171 17.6657 6.941
Li 11.7771 25.5171 21.5914 6.941
Li 11.7771 25.5171 25.5171 6.941
Li 11.7771 25.5171 29.4428 6.941
Li 11.7771 25.5171 33.3685 6.941
Li 11.7771 25.5171 37.2943 6.941
Li 11.7771 29.4428 1.96286 6.941
Li 11.7771 29.4428 5.88857 6.941
Li 11.7771 29.4428 9.81428 6.941
Li 11.7771 29.4428 13.74 6.941
Li 11.7771 29.4428 17.6657 6.941
Li 11.7771 29.4428 21.5914 6.941
Li 11.7771 29.4428 25.5171 6.941
Li 11.7771 29.4428 29.4428 6.941
Li 11.7771 29.4428 33.3685 6.941
Li 11.7771 29.4428 37.2943 6.941
Li 11.7771 33.3685 1.96286 6.941
Li 11.7771 33.3685 5.88857 6.941
Li 11.7771 33.3685 9.81428 6.941
Li 11.7771 33.3685 13.74 6.941
Li 11.7771 33.3685 17.6657 6.941
Li 11.7771 33.3685 21.5914 6.941
Li 11.7771 33.3685 25.5171 6.941
Li 11.7771 33.3685 29.4428 6.941
Li 11.7771 33.3685 33.3685 6.941
Li 11.7771 33.3685 37.2943 6.941
Li 11.7771 37.2943 1.96286 6.941
Li 11.7771 37.2943 5.88857 6.941
Li 11.7771 37.2943 9.81428 6.941
Li 11.7771 37.2943 13.74 6.941
Li 11.7771 37.2943 17.6657 6.941
Li 11.7771 37.2943 21.5914 6.941
Li 11.7771 37.2943 25.5171 6.941
Li 11.7771 37.2943 29.4428 6.941
Li 11.7771 37.2943 33.3685 6.941
Li 11.7771 37.2943 37.2943 6.941
Li 15.7028 1.96286 1.96286 6.941
Li 15.7028 1.96286 5.88857 6.941
Li 15.7028 1.96286 9.81428 6.941
Li 15.7028 1.96286 13.74 6.941
Li 15.7028 1.96286 17.6657 6.941
Li 15.7028 1.96286 21.5914 6.941
Li 15.7028 1.96286 25.5171 6.941
Li 15.7028 1.96286 29.4428 6.941
Li 15.7028 1.96286 33.3685 6.941
Li 15.7028 1.96286 37.2943 6.941
Li 15.7028 5.88857 1.96286 6.941
Li 15.7028 5.88857 5.88857 6.941
Li 15.7028 5.88857 9.81428 6.941
Li 15.7028 5.88857 13.74 6.941
Li 15.7028 5.88857 17.6657 6.941
Li 15.7028 5.88857 21.5914 6.941
Li 15.7028 5.88857 25.5171 6.941
Li 15.7028 5.88857 29.4428 6.941
Li 15.7028 5.88857 33.3685 6.941
Li 15.7028 5.88857 37.2943 6.941
Li 15.7028 9.81428 1.96286 6.941
Li 15.7028 9.81428 5.88857 6.941
Li 15.7028 9.81428 9.81428 6.941
Li 15.7028 9.81428 13.74 6.941
Li 15.7028 9.81428 17.6657 6.941
Li 15.7028 9.81428 21.5914 6.941
Li 15.7028 9.81428 25.5171 6.941
Li 15.7028 9.81428 29.4428 6.941
Li 15.7028 9.81428 33.3685 6.941
Li 15.7028 9.81428 37.2943 6.941
Li 15.7028 13.74 1.96286 6.941
Li 15.7028 13.74 5.88857 6.941
Li 15.7028 13.74 9.81428 6.941
Li 15.7028 13.74 13.74 6.941
Li 15.7028 13.74 17.6657 6.941
Li 15.7028 13.74 21.5914 6.941
Li 15.7028 13.74 25.5171 6.941
Li 15.7028 13.74 29.4428 6.941
Li 15.7028 13.74 33.3685 6.941
Li 15.7028 13.74 37.2943 6.941
Li 15.7028 17.6657 1.96286 6.941
Li 15.7028 17.6657 5.88857 6.941
Li 15.7028 17.6657 9.81428 6.941
Li 15.7028 17.6657 13.74 6.941
Li 15.7028 17.6657 17.6657 6.941
Li 15.7028 17.6657 21.5914 6.941
Li 15.7028 17.6657 25.5171 6.941
Li 15.7028 17.6657 29.4428 6.941
Li 15.7028 17.6657 33.3685 6.941
Li 15.7028 17.6657 37.2943 6.941
Li 15.7028 21.5914 1.96286 6.941
Li 15.7028 21.5914 5.88857 6.941
Li 15.7028 21.5914 9.81428 6.941
Li 15.7028 21.5914 13.74 6.941
Li 15.7028 21.5914 17.6657 6.941
Li 15.7028 21.5914 21.5914 6.941
Li 15.7028 21.5914 25.5171 6.941
Li 15.7028 21.5914 29.4428 6.941
Li 15.7028 21.5914 33.3685 6.941
Li 15.7028 21.5914 37.2943 6.941
Li 15.7028 25.5171 1.96286 6.941
Li 15.7028 25.5171 5.88857 6.941
Li 15.7028 25.5171 9.81428 6.941
Li 15.7028 25.5171 13.74 6.941
Li 15.7028 25.5171 17.6657 6.941
Li 15.7028 25.5171 21.5914 6.941
Li 15.7028 25.5171 25.5171 6.941
Li 15.7028 25.5171 29.4428 6.941
Li 15.7028 25.5171 33.3685 6.941
Li 15.7028 25.5171 37.2943 6.941
Li 15.7028 29.4428 1.96286 6.941
Li 15.7028 29.4428 5.88857 6.941
Li 15.7028 29.4428 9.81428 6.941
Li 15.7028 29.4428 13.74 6.941
Li 15.7028 29.4428 17.6657 6.941
Li 15.7028 29.4428 21.5914 6.941
Li 15.7028 29.4428 25.5171 6.941
Li 15.7028 29.4428 29.4428 6.941
Li 15.7028 29.4428 33.3685 6.941
Li 15.7028 29.4428 37.2943 6.941
Li 15.7028 33.3685 1.96286 6.941
Li 15.7028 33.3685 5.88857 6.941
Li 15.7028 33.3685 9.81428 6.941
Li 15.7028 33.3685 13.74 6.941
Li 15.7028 33.3685 17.6657 6.941
Li 15.7028 33.3685 21.5914 6.941
Li 15.7028 33.3685 25.5171 6.941
Li 15.7028 33.3685 29.4428 6.941
Li 15.7028 33.3685 33.3685 6.941
Li 15.7028 33.3685 37.2943 6.941
Li 15.7028 37.2943 1.96286 6.941
Li 15.7028 37.2943 5.88857 6.941
Li 15.7028 37.2943 9.81428 6.941
Li 15.7028 37.2943 13.74 6.941
Li 15.7028 37.2943 17.6657 6.941
Li 15.7028 37.2943 21.5914 6.941
Li 15.7028 37.2943 25.5171 6.941
Li 15.7028 37.2943 29.4428 6.941
Li 15.7028 37.2943 33.3685 6.941
Li 15.7028 37.2943 37.2943 6.941
Li 19.6286 1.96286 1.96286 6.941
Li 19.6286 1.96286 5.88857 6.941
Li 19.6286 1.96286 9.81428 6.941
Li 19.6286 1.96286 13.74 6.941
Li 19.6286 1.96286 17.6657 6.941
Li 19.6286 1.96286 21.5914 6.941
Li 19.6286 1.96286 25.5171 6.941
Li 19.6286 1.96286 29.4428 6.941
Li 19.6286 1.96286 33.3685 6.941
Li 19.6286 1.96286 37.2943 6.941
Li 19.6286 5.88857 1.96286 6.941
Li 19.6286 5.88857 5.88857 6.941
Li 19.6286 5.88857 9.81428 6.941
Li 19.6286 5.88857 13.74 6.941
Li 19.6286 5.88857 17.6657 6.941
Li 19.6286 5.88857 21.5914 6.941
Li 19.6286 5.88857 25.5171 6.941
Li 19.6286 5.88857 29.4428 6.941
Li 19.6286 5.88857 33.3685 6.941
Li 19.6286 5.88857 37.2943 6.941
Li 19.6286 9.81428 1.96286 6.941
Li 19.6286 9.81428 5.88857 6.941
Li 19.6286 9.81428 9.81428 6.941
Li 19.6286 9.81428 13.74 6.941
Li 19.6286 9.81428 17.6657 6.941
Li 19.6286 9.81428 21.5914 6.941
Li 19.6286 9.81428 25.5171 6.941
Li 19.6286 9.81428 29.4428 6.941
Li 19.6286 9.81428 33.3685 6.941
Li 19.6286 9.81428 37.2943 6.941
Li 19.6286 13.74 1.96286 6.941
Li 19.6286 13.74 5.88857 6.941
Li 19.6286 13.74 9.81428 6.941
Li 19.6286 13.74 13.74 6.941
Li 19.6286 13.74 17.6657 6.941
Li 19.6286 13.74 21.5914 6.941
Li 19.6286 13.74 25.5171 6.941
Li 19.6286 13.74 29.4428 6.941
Li 19.6286 13.74 33.3685 6.941
Li 19.6286 13.74 37.2943 6.941
Li 19.6286 17.6657 1.96286 6.941
Li 19.6286 17.6657 5.88857 6.941
Li 19.6286 17.6657 9.81428 6.941
Li 19.6286 17.6657 13.74 6.941
Li 19.6286 17.6657 17.6657 6.941
Li 19.6286 17.6657 21.5914 6.941
Li 19.6286 17.6657 25.5171 6.941
Li 19.6286 17.6657 29.4428 6.941
Li 19.6286 17.6657 33.3685 6.941
Li 19.6286 17.6657 37.2943 6.941
Li 19.6286 21.5914 1.96286 6.941
Li 19.6286 21.5914 5.88857 6.941
Li 19.6286 21.5914 9.81428 6.941
Li 19.6286 21.5914 13.74 6.941
Li 19.6286 21.5914 17.6657 6.941
Li 19.6286 21.5914 21.5914 6.941
Li 19.6286 21.5914 25.5171 6.941
Li 19.6286 21.5914 29.4428 6.941
Li 19.6286 21.5914 33.3685 6.941
Li 19.6286 21.5914 37.2943 6.941
Li 19.6286 25.5171 1.96286 6.941
Li 19.6286 25.5171 5.88857 6.941
Li 19.6286 25.5171 9.81428 6.941
Li 19.6286 25.5171 13.74 6.941
Li 19.6286 25.5171 17.6657 6.941
Li 19.6286 25.5171 21.5914 6.941
Li 19.6286 25.5171 25.5171 6.941
Li 19.6286 25.5171 29.4428 6.941
Li 19.6286 25.5171 33.3685 6.941
Li 19.6286 25.5171 37.2943 6.941
Li 19.6286 29.4428 1.96286 6.941
Li 19.6286 29.4428 5.88857 6.941
Li 19.6286 29.4428 9.81428 6.941
Li 19.6286 29.4428 13.74 6.941
Li 19.6286 29.4428 17.6657 6.941
Li 19.6286 29.4428 21.5914 6.941
Li 19.6286 29.4428 25.5171 6.941
Li 19.6286 29.4428 29.4428 6.941
Li 19.6286 29.4428 33.3685 6.941
Li 19.6286 29.4428 37.2943 6.941
Li 19.6286 33.3685 1.96286 6.941
Li 19.6286 33.3685 5.88857 6.941
Li 19.6286 33.3685 9.81428 6.941
Li 19.6286 33.3685 13.74 6.941
Li 19.6286 33.3685 17.6657 6.941
Li 19.6286 33.3685 21.5914 6.941
Li 19.6286 33.3685 25.5171 6.941
Li 19.6286 33.3685 29.4428 6.941
Li 19.6286 33.3685 33.3685 6.941
Li 19.6286 33.3685 37.2943 6.941
Li 19.6286 37.2943 1.96286 6.941
Li 19.6286 37.2943 5.88857 6.941
Li 19.6286 37.2943 9.81428 6.941
Li 19.6286 37.2943 13.74 6.941
Li 19.6286 37.2943 17.6657 6.941
Li 19.6286 37.2943 21.5914 6.941
Li 19.6286 37.2943 25.5171 6.941
Li 19.6286 37.2943 29.4428 6.941
Li 19.6286 37.2943 33.3685 6.941
Li 19.6286 37.2943 37.2943 6.941
Li 23.5543 1.96286 1.96286 6.941
Li 23.5543 1.96286 5.88857 6.941
Li 23.5543 1.96286 9.81428 6.941
Li 23.5543 1.96286 13.74 6.941
Li 23.5543 1.96286 17.6657 6.941
Li 23.5543 1.96286 21.5914 6.941
Li 23.5543 1.96286 25.5171 6.941
Li 23.5543 1.96286 29.4428 6.941
Li 23.5543 1.96286 33.3685 6.941
Li 23.5543 1.96286 37.2943 6.941
Li 23.5543 5.88857 1.96286 6.941
Li 23.5543 5.88857 5.88857 6.941
Li 23.5543 5.88857 9.81428 6.941
Li 23.5543 5.88857 13.74 6.941
Li 23.5543 5.88857 17.6657 6.941
Li 23.5543 5.88857 21.5914 6.941
Li 23.5543 5.88857 25.5171 6.941
Li 23.5543 5.88857 29.4428 6.941
Li 23.5543 5.88857 33.3685 6.941
Li 23.5543 5.88857 37.2943 6.941
Li 23.5543 9.81428 1.96286 6.941
Li 23.5543 9.81428 5.88857 6.941
Li 23.5543 9.81428 9.81428 6.941
Li 23.5543 9.81428 13.74 6.941
Li 23.5543 9.81428 17.6657 6.941
Li 23.5543 9.81428 21.5914 6.941
Li 23.5543 9.81428 25.5171 6.941
Li 23.5543 9.81428 29.4428 6.941
Li 23.5543 9.81428 33.3685 6.941
Li 23.5543 9.81428 37.2943 6.941
Li 23.5543 13.74 1.96286 6.941
Li 23.5543 13.74 5.88857 6.941
Li 23.5543 13.74 9.81428 6.941
Li 23.5543 13.74 13.74 6.941
Li 23.5543 13.74 17.6657 6.941
Li 23.5543 13.74 21.5914 6.941
Li 23.5543 13.74 25.5171 6.941
Li 23.5543 13.74 29.4428 6.941
Li 23.5543 13.74 33.3685 6.941
Li 23.5543 13.74 37.2943 6.941
Li 23.5543 17.6657 1.96286 6.941
Li 23.5543 17.6657 5.88857 6.941
Li 23.5543 17.6657 9.81428 6.941
Li 23.5543 17.6657 13.74 6.941
Li 23.5543 17.6657 17.6657 6.941
Li 23.5543 17.6657 21.5914 6.941
Li 23.5543 17.6657 25.5171 6.941
Li 23.5543 17.6657 29.4428 6.941
Li 23.5543 17.6657 33.3685 6.941
Li 23.5543 17.6657 37.2943 6.941
Li 23.5543 21.5914 1.96286 6.941
Li 23.5543 21.5914 5.88857 6.941
Li 23.5543 21.5914 9.81428 6.941
Li 23.5543 21.5914 13.74 6.941
Li 23.5543 21.5914 17.6657 6.941
Li 23.5543 21.5914 21.5914 6.941
Li 23.5543 21.5914 25.5171 6.941
Li 23.5543 21.5914 29.4428 6.941
Li 23.5543 21.5914 33.3685 6.941
Li 23.5543 21.5914 37.2943 6.941
Li 23.5543 25.5171 1.96286 6.941
Li 23.5543 25.5171 5.88857 6.941
Li 23.5543 25.5171 9.81428 6.941
Li 23.5543 25.5171 13.74 6.941
Li 23.5543 25.5171 17.6657 6.941
Li 23.5543 25.5171 21.5914 6.941
Li 23.5543 25.5171 25.5171 6.941
Li 23.5543 25.5171 29.4428 6.941
Li 23.5543 25.5171 33.3685 6.941
Li 23.5543 25.5171 37.2943 6.941
Li 23.5543 29.4428 1.96286 6.941
Li 23.5543 29.4428 5.88857 6.941
Li 23.5543 29.4428 9.81428 6.941
Li 23.5543 29.4428 13.74 6.941
Li 23.5543 29.4428 17.6657 6.941
Li 23.5543 29.4428 21.5914 6.941
Li 23.5543 29.4428 25.5171 6.941
Li 23.5543 29.4428 29.4428 6.941
Li 23.5543 29.4428 33.3685 6.941
Li 23.5543 29.4428 37.2943 6.941
Li 23.5543 33.3685 1.96286 6.941
Li 23.5543 33.3685 5.88857 6.941
Li 23.5543 33.3685 9.81428 6.941
Li 23.5543 33.3685 13.74 6.941
Li 23.5543 33.3685 17.6657 6.941
Li 23.5543 33.3685 21.5914 6.941
Li 23.5543 33.3685 25.5171 6.941
Li 23.5543 33.3685 29.4428 6.941
Li 23.5543 33.3685 33.3685 6.941
Li 23.5543 33.3685 37.2943 6.941
Li 23.5543 37.2943 1.96286 6.941
Li 23.5543 37.2943 5.88857 6.941
Li 23.5543 37.2943 9.81428 6.941
Li 23.5543 37.2943 13.74 6.941
Li 23.5543 37.2943 17.6657 6.941
Li 23.5543 37.2943 21.5914 6.941
Li 23.5543 37.2943 25.5171 6.941
Li 23.5543 37.2943 29.4428 6.941
Li 23.5543 37.2943 33.3685 6.941
Li 23.5543 37.2943 37.2943 6.941
Li 27.48 1.96286 1.96286 6.941
Li 27.48 1.96286 5.88857 6.941
Li 27.48 1.96286 9.81428 6.941
Li 27.48 1.96286 13.74 6.941
Li 27.48 1.96286 17.6657 6.941
Li 27.48 1.96286 21.5914 6.941
Li 27.48 1.96286 25.5171 6.941
Li 27.48 1.96286 29.4428 6.941
Li 27.48 1.96286 33.3685 6.941
Li 27.48 1.96286 37.2943 6.941
Li 27.48 5.88857 1.96286 6.941
Li 27.48 5.88857 5.88857 6.941
Li 27.48 5.88857 9.81428 6.941
Li 27.48 5.88857 13.74 6.941
Li 27.48 5.88857 17.6657 6.941
Li 27.48 5.88857 21.5914 6.941
Li 27.48 5.88857 25.5171 6.941
Li 27.48 5.88857 29.4428 6.941
Li 27.48 5.88857 33.3685 6.941
Li 27.48 5.88857 37.2943 6.941
Li 27.48 9.81428 1.96286 6.941
Li 27.48 9.81428 5.88857 6.941
Li 27.48 9.81428 9.81428 6.941
Li 27.48 9.81428 13.74 6.941
Li 27.48 9.81428 17.6657 6.941
Li 27.48 9.81428 21.5914 6.941
Li 27.48 9.81428 25.5171 6.941
Li 27.48 9.81428 29.4428 6.941
Li 27.48 9.81428 33.3685 6.941
Li 27.48 9.81428 37.2943 6.941
Li 27.48 13.74 1.96286 6.941
Li 27.48 13.74 5.88857 6.941
Li 27.48 13.74 9.81428 6.941
Li 27.48 13.74 13.74 6.941
Li 27.48 13.74 17.6657 6.941
Li 27.48 13.74 21.5914 6.941
Li 27.48 13.74 25.5171 6.941
Li 27.48 13.74 29.4428 6.941
Li 27.48 13.74 33.3685 6.941
Li 27.48 13.74 37.2943 6.941
Li 27.48 17.6657 1.96286 6.941
Li 27.48 17.6657 5.88857 6.941
Li 27.48 17.6657 9.81428 6.941
Li 27.48 17.6657 13.74 6.941
Li 27.48 17.6657 17.6657 6.941
Li 27.48 17.6657 21.5914 6.941
Li 27.48 17.6657 25.5171 6.941
Li 27.48 17.6657 29.4428 6.941
Li 27.48 17.6657 33.3685 6.941
Li 27.48 17.6657 37.2943 6.941
Li 27.48 21.5914 1.96286 6.941
Li 27.48 21.5914 5.88857 6.941
Li 27.48 21.5914 9.81428 6.941
Li 27.48 21.5914 13.74 6.941
Li 27.48 21.5914 17.6657 6.941
Li 27.48 21.5914 21.5914 6.941
Li 27.48 21.5914 25.5171 6.941
Li 27.48 21.5914 29.4428 6.941
Li 27.48 21.5914 33.3685 6.941
Li 27.48 21.5914 37.2943 6.941
Li 27.48 25.5171 1.96286 6.941
Li 27.48 25.5171 5.88857 6.941
Li 27.48 25.5171 9.81428 6.941
Li 27.48 25.5171 13.74 6.941
Li 27.48 25.5171 17.6657 6.941
Li 27.48 25.5171 21.5914 6.941
Li 27.48 25.5171 25.5171 6.941
Li 27.48 25.5171 29.4428 6.941
Li 27.48 25.5171 33.3685 6.941
Li 27.48 25.5171 37.2943 6.941
Li 27.48 29.4428 1.96286 6.941
Li 27.48 29.4428 5.88857 6.941
Li 27.48 29.4428 9.81428 6.941
Li 27.48 29.4428 13.74 6.941
Li 27.48 29.4428 17.6657 6.941
Li 27.48 29.4428 21.5914 6.941
Li 27.48 29.4428 25.5171 6.941
Li 27.48 29.4428 29.4428 6.941
Li 27.48 29.4428 33.3685 6.941
Li 27.48 29.4428 37.2943 6.941
Li 27.48 33.3685 1.96286 6.941
Li 27.48 33.3685 5.88857 6.941
Li 27.48 33.3685 9.81428 6.941
Li 27.48 33.3685 13.74 6.941
Li 27.48 33.3685 17.6657 6.941
Li 27.48 33.3685 21.5914 6.941
Li 27.48 33.3685 25.5171 6.941
Li 27.48 33.3685 29.4428 6.941
Li 27.48 33.3685 33.3685 6.941
Li 27.48 33.3685 37.2943 6.941
Li 27.48 37.2943 1.96286 6.941
Li 27.48 37.2943 5.88857 6.941
Li 27.48 37.2943 9.81428 6.941
Li 27.48 37.2943 13.74 6.941
Li 27.48 37.2943 17.6657 6.941
Li 27.48 37.2943 21.5914 6.941
Li 27.48 37.2943 25.5171 6.941
Li 27.48 37.2943 29.4428 6.941
Li 27.48 37.2943 33.3685 6.941
Li 27.48 37.2943 37.2943 6.941
Li 31.4057 1.96286 1.96286 6.941
Li 31.4057 1.96286 5.88857 6.941
Li 31.4057 1.96286 9.81428 6.941
Li 31.4057 1.96286 13.74 6.941
Li 31.4057 1.96286 17.6657 6.941
Li 31.4057 1.96286 21.5914 6.941
Li 31.4057 1.96286 25.5171 6.941
Li 31.4057 1.96286 29.4428 6.941
Li 31.4057 1.96286 33.3685 6.941
Li 31.4057 1.96286 37.2943 6.941
Li 31.4057 5.88857 1.96286 6.941
Li 31.4057 5.88857 5.88857 6.941
Li 31.4057 5.88857 9.81428 6.941
Li 31.4057 5.88857 13.74 6.941
Li 31.4057 5.88857 17.6657 6.941
Li 31.4057 5.88857 21.5914 6.941
Li 31.4057 5.88857 25.5171 6.941
Li 31.4057 5.88857 29.4428 6.941
Li 31.4057 5.88857 33.3685 6.941
Li 31.4057 5.88857 37.2943 6.941
Li 31.4057 9.81428 1.96286 6.941
Li 31.4057 9.81428 5.88857 6.941
Li 31.4057 9.81428 9.81428 6.941
Li 31.4057 9.81428 13.74 6.941
Li 31.4057 9.81428 17.6657 6.941
Li 31.4057 9.81428 21.5914 6.941
Li 31.4057 9.81428 25.5171 6.941
Li 31.4057 9.81428 29.4428 6.941
Li 31.4057 9.81428 33.3685 6.941
Li 31.4057 9.81428 37.2943 6.941
Li 31.4057 13.74 1.96286 6.941
Li 31.4057 13.74 5.88857 6.941
Li 31.4057 13.74 9.81428 6.941
Li 31.4057 13.74 13.74 6.941
Li 31.4057 13.74 17.6657 6.941
Li 31.4057 13.74 21.5914 6.941
Li 31.4057 13.74 25.5171 6.941
Li 31.4057 13.74 29.4428 6.941
Li 31.4057 13.74 33.3685 6.941
Li 31.4057 13.74 37.2943 6.941
Li 31.4057 17.6657 1.96286 6.941
Li 31.4057 17.6657 5.88857 6.941
Li 31.4057 17.6657 9.81428 6.941
Li 31.4057 17.6657 13.74 6.941
Li 31.4057 17.6657 17.6657 6.941
Li 31.4057 17.6657 21.5914 6.941
Li 31.4057 17.6657 25.5171 6.941
Li 31.4057 17.6657 29.4428 6.941
Li 31.4057 17.6657 33.3685 6.941
Li 31.4057 17.6657 37.2943 6.941
Li 31.4057 21.5914 1.96286 6.941
Li 31.4057 21.5914 5.88857 6.941
Li 31.4057 21.5914 9.81428 6.941
Li 31.4057 21.5914 13.74 6.941
Li 31.4057 21.5914 17.6657 6.941
Li 31.4057 21.5914 21.5914 6.941
Li 31.4057 21.5914 25.5171 6.941
Li 31.4057 21.5914 29.4428 6.941
Li 31.4057 21.5914 33.3685 6.941
Li 31.4057 21.5914 37.2943 6.941
Li 31.4057 25.5171 1.96286 6.941
Li 31.4057 25.5171 5.88857 6.941
Li 31.4057 25.5171 9.81428 6.941
Li 31.4057 25.5171 13.74 6.941
Li 31.4057 25.5171 17.6657 6.941
Li 31.4057 25.5171 21.5914 6.941
Li 31.4057 25.5171 25.5171 6.941
Li 31.4057 25.5171 29.4428 6.941
Li 31.4057 25.5171 33.3685 6.941
Li 31.4057 25.5171 37.2943 6.941
Li 31.4057 29.4428 1.96286 6.941
Li 31.4057 29.4428 5.88857 6.941
Li 31.4057 29.4428 9.81428 6.941
Li 31.4057 29.4428 13.74 6.941
Li 31.4057 29.4428 17.6657 6.941
Li 31.4057 29.4428 21.5914 6.941
Li 31.4057 29.4428 25.5171 6.941
Li 31.4057 29.4428 29.4428 6.941
Li 31.4057 29.4428 33.3685 6.941
Li 31.4057 29.4428 37.2943 6.941
Li 31.4057 33.3685 1.96286 6.941
Li 31.4057 33.3685 5.88857 6.941
Li 31.4057 33.3685 9.81428 6.941
Li 31.4057 33.3685 13.74 6.941
Li 31.4057 33.3685 17.6657 6.941
Li 31.4057 33.3685 21.5914 6.941
Li 31.4057 33.3685 25.5171 6.941
Li 31.4057 33.3685 29.4428 6.941
Li 31.4057 33.3685 33.3685 6.941
Li 31.4057 33.3685 37.2943 6.941
Li 31.4057 37.2943 1.96286 6.941
Li 31.4057 37.2943 5.88857 6.941
Li 31.4057 37.2943 9.81428 6.941
Li 31.4057 37.2943 13.74 6.941
Li 31.4057 37.2943 17.6657 6.941
Li 31.4057 37.2943 21.5914 6.941
Li 31.4057 37.2943 25.5171 6.941
Li 31.4057 37.2943 29.4428 6.941
Li 31.4057 37.2943 33.3685 6.941
Li 31.4057 37.2943 37.2943 6.941
Li 35.3314 1.96286 1.96286 6.941
Li 35.3314 1.96286 5.88857 6.941
Li 35.3314 1.96286 9.81428 6.941
Li 35.3314 1.96286 13.74 6.941
Li 35.3314 1.96286 17.6657 6.941
Li 35.3314 1.96286 21.5914 6.941
Li 35.3314 1.96286 25.5171 6.941
Li 35.3314 1.96286 29.4428 6.941
Li 35.3314 1.96286 33.3685 6.941
Li 35.3314 1.96286 37.2943 6.941
Li 35.3314 5.88857 1.96286 6.941
Li 35.3314 5.88857 5.88857 6.941
Li 35.3314 5.88857 9.81428 6.941
Li 35.3314 5.88857 13.74 6.941
Li 35.3314 5.88857 17.6657 6.941
Li 35.3314 5.88857 21.5914 6.941
Li 35.3314 5.88857 25.5171 6.941
Li 35.3314 5.88857 29.4428 6.941
Li 35.3314 5.88857 33.3685 6.941
Li 35.3314 5.88857 37.2943 6.941
Li 35.3314 9.81428 1.96286 6.941
Li 35.3314 9.81428 5.88857 6.941
Li 35.3314 9.81428 9.81428 6.941
Li 35.3314 9.81428 13.74 6.941
Li 35.3314 9.81428 17.6657 6.941
Li 35.3314 9.81428 21.5914 6.941
Li 35.3314 9.81428 25.5171 6.941
Li 35.3314 9.81428 29.4428 6.941
Li 35.3314 9.81428 33.3685 6.941
Li 35.3314 9.81428 37.2943 6.941
Li 35.3314 13.74 1.96286 6.941
Li 35.3314 13.74 5.88857 6.941
Li 35.3314 13.74 9.81428 6.941
Li 35.3314 13.74 13.74 6.941
Li 35.3314 13.74 17.6657 6.941
Li 35.3314 13.74 21.5914 6.941
Li 35.3314 13.74 25.5171 6.941
Li 35.3314 13.74 29.4428 6.941
Li 35.3314 13.74 33.3685 6.941
Li 35.3314 13.74 37.2943 6.941
Li 35.3314 17.6657 1.96286 6.941
Li 35.3314 17.6657 5.88857 6.941
Li 35.3314 17.6657 9.81428 6.941
Li 35.3314 17.6657 13.74 6.941
Li 35.3314 17.6657 17.6657 6.941
Li 35.3314 17.6657 21.5914 6.941
Li 35.3314 17.6657 25.5171 6.941
Li 35.3314 17.6657 29.4428 6.941
Li 35.3314 17.6657 33.3685 6.941
Li 35.3314 17.6657 37.2943 6.941
Li 35.3314 21.5914 1.96286 6.941
Li 35.3314 21.5914 5.88857 6.941
Li 35.3314 21.5914 9.81428 6.941
Li 35.3314 21.5914 13.74 6.941
Li 35.3314 21.5914 17.6657 6.941
Li 35.3314 21.5914 21.5914 6.941
Li 35.3314 21.5914 25.5171 6.941
Li 35.3314 21.5914 29.4428 6.941
Li 35.3314 21.5914 33.3685 6.941
Li 35.3314 21.5914 37.2943 6.941
Li 35.3314 25.5171 1.96286 6.941
Li 35.3314 25.5171 5.88857 6.941
Li 35.3314 25.5171 9.81428 6.941
Li 35.3314 25.5171 13.74 6.941
Li 35.3314 25.5171 17.6657 6.941
Li 35.3314 25.5171 21.5914 6.941
Li 35.3314 25.5171 25.5171 6.941
Li 35.3314 25.5171 29.4428 6.941
Li 35.3314 25.5171 33.3685 6.941
Li 35.3314 25.5171 37.2943 6.941
Li 35.3314 29.4428 1.96286 6.941
Li 35.3314 29.4428 5.88857 6.941
Li 35.3314 29.4428 9.81428 6.941
Li 35.3314 29.4428 13.74 6.941
Li 35.3314 29.4428 17.6657 6.941
Li 35.3314 29.4428 21.5914 6.941
Li 35.3314 29.4428 25.5171 6.941
Li 35.3314 29.4428 29.4428 6.941
Li 35.3314 29.4428 33.3685 6.941
Li 35.3314 29.4428 37.2943 6.941
Li 35.3314 33.3685 1.96286 6.941
Li 35.3314 33.3685 5.88857 6.941
Li 35.3314 33.3685 9.81428 6.941
Li 35.3314 33.3685 13.74 6.941
Li 35.3314 33.3685 17.6657 6.941
Li 35.3314 33.3685 21.5914 6.941
Li 35.3314 33.3685 25.5171 6.941
Li 35.3314 33.3685 29.4428 6.941
Li 35.3314 33.3685 33.3685 6.941
Li 35.3314 33.3685 37.2943 6.941
Li 35.3314 37.2943 1.96286 6.941
Li 35.3314 37.2943 5.88857 6.941
Li 35.3314 37.2943 9.81428 6.941
Li 35.3314 37.2943 13.74 6.941
Li 35.3314 37.2943 17.6657 6.941
Li 35.3314 37.2943 21.5914 6.941
Li 35.3314 37.2943 25.5171 6.941
Li 35.3314 37.2943 29.4428 6.941
Li 35.3314 37.2943 33.3685 6.941
Li 35.3314 37.2943 37.2943 6.941
Li 1.96286 0 1.96286 6.941
Li 1.96286 0 5.88857 6.941
Li 1.96286 0 9.81428 6.941
Li 1.96286 0 13.74 6.941
Li 1.96286 0 17.6657 6.941
Li 1.96286 0 21.5914 6.941
Li 1.96286 0 25.5171 6.941
Li 1.96286 0 29.4428 6.941
Li 1.96286 0 33.3685 6.941
Li 1.96286 0 37.2943 6.941
Li 1.96286 3.92571 1.96286 6.941
Li 1.96286 3.92571 5.88857 6.941
Li 1.96286 3.92571 9.81428 6.941
Li 1.96286 3.92571 13.74 6.941
Li 1.96286 3.92571 17.6657 6.941
Li 1.96286 3.92571 21.5914 6.941
Li 1.96286 3.92571 25.5171 6.941
Li 1.96286 3.92571 29.4428 6.941
Li 1.96286 3.92571 33.3685 6.941
Li 1.96286 3.92571 37.2943 6.941
Li 1.96286 7.85142 1.96286 6.941
Li 1.96286 7.85142 5.88857 6.941
Li 1.96286 7.85142 9.81428 6.941
Li 1.96286 7.85142 13.74 6.941
Li 1.96286 7.85142 17.6657 6.941
Li 1.96286 7.85142 21.5914 6.941
Li 1.96286 7.85142 25.5171 6.941
Li 1.96286 7.85142 29.4428 6.941
Li 1.96286 7.85142 33.3685 6.941
Li 1.96286 7.85142 37.2943 6.941
Li 1.96286 11.7771 1.96286 6.941
Li 1.96286 11.7771 5.88857 6.941
Li 1.96286 11.7771 9.81428 6.941
Li 1.96286 11.7771 13.74 6.941
Li 1.96286 11.7771 17.6657 6.941
Li 1.96286 11.7771 21.5914 6.941
Li 1.96286 11.7771 25.5171 6.941
Li 1.96286 11.7771 29.4428 6.941
Li 1.96286 11.7771 33.3685 6.941
Li 1.96286 11.7771 37.2943 6.941
Li 1.96286 15.7028 1.96286 6.941
Li 1.96286 15.7028 5.88857 6.941
Li 1.96286 15.7028 9.81428 6.941
Li 1.96286 15.7028 13.74 6.941
Li 1.96286 15.7028 17.6657 6.941
Li 1.96286 15.7028 21.5914 6.941
Li 1.96286 15.7028 25.5171 6.941
Li 1.96286 15.7028 29.4428 6.941
Li 1.96286 15.7028 33.3685 6.941
Li 1.96286 15.7028 37.2943 6.941
Li 1.96286 19.6286 1.96286 6.941
Li 1.96286 19.6286 5.88857 6.941
Li 1.96286 19.6286 9.81428 6.941
Li 1.96286 19.6286 13.74 6.941
Li 1.96286 19.6286 17.6657 6.941
Li 1.96286 19.6286 21.5914 6.941
Li 1.96286 19.6286 25.5171 6.941
Li 1.96286 19.6286 29.4428 6.941
Li 1.96286 19.6286 33.3685 6.941
Li 1.96286 19.6286 37.2943 6.941
Li 1.96286 23.5543 1.96286 6.941
Li 1.96286 23.5543 5.88857 6.941
Li 1.96286 23.5543 9.81428 6.941
Li 1.96286 23.5543 13.74 6.941
Li 1.96286 23.5543 17.6657 6.941
Li 1.96286 23.5543 21.5914 6.941
Li 1.96286 23.5543 25.5171 6.941
Li 1.96286 23.5543 29.4428 6.941
Li 1.96286 23.5543 33.3685 6.941
Li 1.96286 23.5543 37.2943 6.941
Li 1.96286 27.48 1.96286 6.941
Li 1.96286 27.48 5.88857 6.941
Li 1.96286 27.48 9.81428 6.941
Li 1.96286 27.48 13.74 6.941
Li 1.96286 27.48 17.6657 6.941
Li 1.96286 27.48 21.5914 6.941
Li 1.96286 27.48 25.5171 6.941
Li 1.96286 27.48 29.4428 6.941
Li 1.96286 27.48 33.3685 6.941
Li 1.96286 27.48 37.2943 6.941
Li 1.96286 31.4057 1.96286 6.941
Li 1.96286 31.4057 5.88857 6.941
Li 1.96286 31.4057 9.81428 6.941
Li 1.96286 31.4057 13.74 6.941
Li 1.96286 31.4057 17.6657 6.941
Li 1.96286 31.4057 21.5914 6.941
Li 1.96286 31.4057 25.5171 6.941
Li 1.96286 31.4057 29.4428 6.941
Li 1.96286 31.4057 33.3685 6.941
Li 1.96286 31.4057 37.2943 6.941
Li 1.96286 35.3314 1.96286 6.941
Li 1.96286 35.3314 5.88857 6.941
Li 1.96286 35.3314 9.81428 6.941
Li 1.96286 35.3314 13.74 6.941
Li 1.96286 35.3314 17.6657 6.941
Li 1.96286 35.3314 21.5914 6.941
Li 1.96286 35.3314 25.5171 6.941
Li 1.96286 35.3314 29.4428 6.941
Li 1.96286 35.3314 33.3685 6.941
Li 1.96286 35.3314 37.2943 6.941
Li 5.88857 0 1.96286 6.941
Li 5.88857 0 5.88857 6.941
Li 5.88857 0 9.81428 6.941
Li 5.88857 0 13.74 6.941
Li 5.88857 0 17.6657 6.941
Li 5.88857 0 21.5914 6.941
Li 5.88857 0 25.5171 6.941
Li 5.88857 0 29.4428 6.941
Li 5.88857 0 33.3685 6.941
Li 5.88857 0 37.2943 6.941
Li 5.88857 3.92571 1.96286 6.941
Li 5.88857 3.92571 5.88857 6.941
Li 5.88857 3.92571 9.81428 6.941
Li 5.88857 3.92571 13.74 6.941
Li 5.88857 3.92571 17.6657 6.941
Li 5.88857 3.92571 21.5914 6.941
Li 5.88857 3.92571 25.5171 6.941
Li 5.88857 3.92571 29.4428 6.941
Li 5.88857 3.92571 33.3685 6.941
Li 5.88857 3.92571 37.2943 6.941
Li 5.88857 7.85142 1.96286 6.941
Li 5.88857 7.85142 5.88857 6.941
Li 5.88857 7.85142 9.81428 6.941
Li 5.88857 7.85142 13.74 6.941
Li 5.88857 7.85142 17.6657 6.941
Li 5.88857 7.85142 21.5914 6.941
Li 5.88857 7.85142 25.5171 6.941
Li 5.88857 7.85142 29.4428 6.941
Li 5.88857 7.85142 33.3685 6.941
Li 5.88857 7.85142 37.2943 6.941
Li 5.88857 11.7771 1.96286 6.941
Li 5.88857 11.7771 5.88857 6.941
Li 5.88857 11.7771 9.81428 6.941
Li 5.88857 11.7771 13.74 6.941
Li 5.88857 11.7771 17.6657 6.941
Li 5.88857 11.7771 21.5914 6.941
Li 5.88857 11.7771 25.5171 6.941
Li 5.88857 11.7771 29.4428 6.941
Li 5.88857 11.7771 33.3685 6.941
Li 5.88857 11.7771 37.2943 6.941
Li 5.88857 15.7028 1.96286 6.941
Li 5.88857 15.7028 5.88857 6.941
Li 5.88857 15.7028 9.81428 6.941
Li 5.88857 15.7028 13.74 6.941
Li 5.88857 15.7028 17.6657 6.941
Li 5.88857 15.7028 21.5914 6.941
Li 5.88857 15.7028 25.5171 6.941
Li 5.88857 15.7028 29.4428 6.941
Li 5.88857 15.7028 33.3685 6.941
Li 5.88857 15.7028 37.2943 6.941
Li 5.88857 19.6286 1.96286 6.941
Li 5.88857 19.6286 5.88857 6.941
Li 5.88857 19.6286 9.81428 6.941
Li 5.88857 19.6286 13.74 6.941
Li 5.88857 19.6286 17.6657 6.941
Li 5.88857 19.6286 21.5914 6.941
Li 5.88857 19.6286 25.5171 6.941
Li 5.88857 19.6286 29.4428 6.941
Li 5.88857 19.6286 33.3685 6.941
Li 5.88857 19.6286 37.2943 6.941
Li 5.88857 23.5543 1.96286 6.941
Li 5.88857 23.5543 5.88857 6.941
Li 5.88857 23.5543 9.81428 6.941
Li 5.88857 23.5543 13.74 6.941
Li 5.88857 23.5543 17.6657 6.941
Li 5.88857 23.5543 21.5914 6.941
Li 5.88857 23.5543 25.5171 6.941
Li 5.88857 23.5543 29.4428 6.941
Li 5.88857 23.5543 33.3685 6.941
Li 5.88857 23.5543 37.2943 6.941
Li 5.88857 27.48 1.96286 6.941
Li 5.88857 27.48 5.88857 6.941
Li 5.88857 27.48 9.81428 6.941
Li 5.88857 27.48 13.74 6.941
Li 5.88857 27.48 17.6657 6.941
Li 5.88857 27.48 21.5914 6.941
Li 5.88857 27.48 25.5171 6.941
Li 5.88857 27.48 29.4428 6.941
Li 5.88857 27.48 33.3685 6.941
Li 5.88857 27.48 37.2943 6.941
Li 5.88857 31.4057 1.96286 6.941
Li 5.88857 31.4057 5.88857 6.941
Li 5.88857 31.4057 9.81428 6.941
Li 5.88857 31.4057 13.74 6.941
Li 5.88857 31.4057 17.6657 6.941
Li 5.88857 31.4057 21.5914 6.941
Li 5.88857 31.4057 25.5171 6.941
Li 5.88857 31.4057 29.4428 6.941
Li 5.88857 31.4057 33.3685 6.941
Li 5.88857 31.4057 37.2943 6.941
Li 5.88857 35.3314 1.96286 6.941
Li 5.88857 35.3314 5.88857 6.941
Li 5.88857 35.3314 9.81428 6.941
Li 5.88857 35.3314 13.74 6.941
Li 5.88857 35.3314 17.6657 6.941
Li 5.88857 35.3314 21.5914 6.941
Li 5.88857 35.3314 25.5171 6.941
Li 5.88857 35.3314 29.4428 6.941
Li 5.88857 35.3314 33.3685 6.941
Li 5.88857 35.3314 37.2943 6.941
Li 9.81428 0 1.96286 6.941
Li 9.81428 0 5.88857 6.941
Li 9.81428 0 9.81428 6.941
Li 9.81428 0 13.74 6.941
Li 9.81428 0 17.6657 6.941
Li 9.81428 0 21.5914 6.941
Li 9.81428 0 25.5171 6.941
Li 9.81428 0 29.4428 6.941
Li 9.81428 0 33.3685 6.941
Li 9.81428 0 37.2943 6.941
Li 9.81428 3.92571 1.96286 6.941
Li 9.81428 3.92571 5.88857 6.941
Li 9.81428 3.92571 9.81428 6.941
Li 9.81428 3.92571 13.74 6.941
Li 9.81428 3.92571 17.6657 6.941
Li 9.81428 3.92571 21.5914 6.941
Li 9.81428 3.92571 25.5171 6.941
Li 9.81428 3.92571 29.4428 6.941
Li 9.81428 3.92571 33.3685 6.941
Li 9.81428 3.92571 37.2943 6.941
Li 9.81428 7.85142 1.96286 6.941
Li 9.81428 7.85142 5.88857 6.941
Li 9.81428 7.85142 9.81428 6.941
Li 9.81428 7.85142 13.74 6.941
Li 9.81428 7.85142 17.6657 6.941
Li 9.81428 7.85142 21.5914 6.941
Li 9.81428 7.85142 25.5171 6.941
Li 9.81428 7.85142 29.4428 6.941
Li 9.81428 7.85142 33.3685 6.941
Li 9.81428 7.85142 37.2943 6.941
Li 9.81428 11.7771 1.96286 6.941
Li 9.81428 11.7771 5.88857 6.941
Li 9.81428 11.7771 9.81428 6.941
Li 9.81428 11.7771 13.74 6.941
Li 9.81428 11.7771 17.6657 6.941
Li 9.81428 11.7771 21.5914 6.941
Li 9.81428 11.7771 25.5171 6.941
Li 9.81428 11.7771 29.4428 6.941
Li 9.81428 11.7771 33.3685 6.941
Li 9.81428 11.7771 37.2943 6.941
Li 9.81428 15.7028 1.96286 6.941
Li 9.81428 15.7028 5.88857 6.941
Li 9.81428 15.7028 9.81428 6.941
Li 9.81428 15.7028 13.74 6.941
Li 9.81428 15.7028 17.6657 6.941
Li 9.81428 15.7028 21.5914 6.941
Li 9.81428 15.7028 25.5171 6.941
Li 9.81428 15.7028 29.4428 6.941
Li 9.81428 15.7028 33.3685 6.941
Li 9.81428 15.7028 37.2943 6.941
Li 9.81428 19.6286 1.96286 6.941
Li 9.81428 19.6286 5.88857 6.941
Li 9.81428 19.6286 9.81428 6.941
Li 9.81428 19.6286 13.74 6.941
Li 9.81428 19.6286 17.6657 6.941
Li 9.81428 19.6286 21.5914 6.941
Li 9.81428 19.6286 25.5171 6.941
Li 9.81428 19.6286 29.4428 6.941
Li 9.81428 19.6286 33.3685 6.941
Li 9.81428 19.6286 37.2943 6.941
Li 9.81428 23.5543 1.96286 6.941
Li 9.81428 23.5543 5.88857 6.941
Li 9.81428 23.5543 9.81428 6.941
Li 9.81428 23.5543 13.74 6.941
Li 9.81428 23.5543 17.6657 6.941
Li 9.81428 23.5543 21.5914 6.941
Li 9.81428 23.5543 25.5171 6.941
Li 9.81428 23.5543 29.4428 6.941
Li 9.81428 23.5543 33.3685 6.941
Li 9.81428 23.5543 37.2943 6.941
Li 9.81428 27.48 1.96286 6.941
Li 9.81428 27.48 5.88857 6.941
Li 9.81428 27.48 9.81428 6.941
Li 9.81428 27.48 13.74 6.941
Li 9.81428 27.48 17.6657 6.941
Li 9.81428 27.48 21.5914 6.941
Li 9.81428 27.48 25.5171 6.941
Li 9.81428 27.48 29.4428 6.941
Li 9.81428 27.48 33.3685 6.941
Li 9.81428 27.48 37.2943 6.941
Li 9.81428 31.4057 1.96286 6.941
Li 9.81428 31.4057 5.88857 6.941
Li 9.81428 31.4057 9.81428 6.941
Li 9.81428 31.4057 13.74 6.941
Li 9.81428 31.4057 17.6657 6.941
Li 9.81428 31.4057 21.5914 6.941
Li 9.81428 31.4057 25.5171 6.941
Li 9.81428 31.4057 29.4428 6.941
Li 9.81428 31.4057 33.3685 6.941
Li 9.81428 31.4057 37.2943 6.941
Li 9.81428 35.3314 1.96286 6.941
Li 9.81428 35.3314 5.88857 6.941
Li 9.81428 35.3314 9.81428 6.941
Li 9.81428 35.3314 13.74 6.941
Li 9.81428 35.3314 17.6657 6.941
Li 9.81428 35.3314 21.5914 6.941
Li 9.81428 35.3314 25.5171 6.941
Li 9.81428 35.3314 29.4428 6.941
Li 9.81428 35.3314 33.3685 6.941
Li 9.81428 35.3314 37.2943 6.941
Li 13.74 0 1.96286 6.941
Li 13.74 0 5.88857 6.941
Li 13.74 0 9.81428 6.941
Li 13.74 0 13.74 6.941
Li 13.74 0 17.6657 6.941
Li 13.74 0 21.5914 6.941
Li 13.74 0 25.5171 6.941
Li 13.74 0 29.4428 6.941
Li 13.74 0 33.3685 6.941
Li 13.74 0 37.2943 6.941
Li 13.74 3.92571 1.96286 6.941
Li 13.74 3.92571 5.88857 6.941
Li 13.74 3.92571 9.81428 6.941
Li 13.74 3.92571 13.74 6.941
Li 13.74 3.92571 17.6657 6.941
Li 13.74 3.92571 21.5914 6.941
Li 13.74 3.92571 25.5171 6.941
Li 13.74 3.92571 29.4428 6.941
Li 13.74 3.92571 33.3685 6.941
Li 13.74 3.92571 37.2943 6.941
Li 13.74 7.85142 1.96286 6.941
Li 13.74 7.85142 5.88857 6.941
Li 13.74 7.85142 9.81428 6.941
Li 13.74 7.85142 13.74 6.941
Li 13.74 7.85142 17.6657 6.941
Li 13.74 7.85142 21.5914 6.941
Li 13.74 7.85142 25.5171 6.941
Li 13.74 7.85142 29.4428 6.941
Li 13.74 7.85142 33.3685 6.941
Li 13.74 7.85142 37.2943 6.941
Li 13.74 11.7771 1.96286 6.941
Li 13.74 11.7771 5.88857 6.941
Li 13.74 11.7771 9.81428 6.941
Li 13.74 11.7771 13.74 6.941
Li 13.74 11.7771 17.6657 6.941
Li 13.74 11.7771 21.5914 6.941
Li 13.74 11.7771 25.5171 6.941
Li 13.74 11.7771 29.4428 6.941
Li 13.74 11.7771 33.3685 6.941
Li 13.74 11.7771 37.2943 6.941
Li 13.74 15.7028 1.96286 6.941
Li 13.74 15.7028 5.88857 6.941
Li 13.74 15.7028 9.81428 6.941
Li 13.74 15.7028 13.74 6.941
Li 13.74 15.7028 17.6657 6.941
Li 13.74 15.7028 21.5914 6.941
Li 13.74 15.7028 25.5171 6.941
Li 13.74 15.7028 29.4428 6.941
Li 13.74 15.7028 33.3685 6.941
Li 13.74 15.7028 37.2943 6.941
Li 13.74 19.6286 1.96286 6.941
Li 13.74 19.6286 5.88857 6.941
Li 13.74 19.6286 9.81428 6.941
Li 13.74 19.6286 13.74 6.941
Li 13.74 19.6286 17.6657 6.941
Li 13.74 19.6286 21.5914 6.941
Li 13.74 19.6286 25.5171 6.941
Li 13.74 19.6286 29.4428 6.941
Li 13.74 19.6286 33.3685 6.941
Li 13.74 19.6286 37.2943 6.941
Li 13.74 23.5543 1.96286 6.941
Li 13.74 23.5543 5.88857 6.941
Li 13.74 23.5543 9.81428 6.941
Li 13.74 23.5543 13.74 6.941
Li 13.74 23.5543 17.6657 6.941
Li 13.74 23.5543 21.5914 6.941
Li 13.74 23.5543 25.5171 6.941
Li 13.74 23.5543 29.4428 6.941
Li 13.74 23.5543 33.3685 6.941
Li 13.74 23.5543 37.2943 6.941
Li 13.74 27.48 1.96286 6.941
Li 13.74 27.48 5.88857 6.941
Li 13.74 27.48 9.81428 6.941
Li 13.74 27.48 13.74 6.941
Li 13.74 27.48 17.6657 6.941
Li 13.74 27.48 21.5914 6.941
Li 13.74 27.48 25.5171 6.941
Li 13.74 27.48 29.4428 6.941
Li 13.74 27.48 33.3685 6.941
Li 13.74 27.48 37.2943 6.941
Li 13.74 31.4057 1.96286 6.941
Li 13.74 31.4057 5.88857 6.941
Li 13.74 31.4057 9.81428 6.941
Li 13.74 31.4057 13.74 6.941
Li 13.74 31.4057 17.6657 6.941
Li 13.74 31.4057 21.5914 6.941
Li 13.74 31.4057 25.5171 6.941
Li 13.74 31.4057 29.4428 6.941
Li 13.74 31.4057 33.3685 6.941
Li 13.74 31.4057 37.2943 6.941
Li 13.74 35.3314 1.96286 6.941
Li 13.74 35.3314 5.88857 6.941
Li 13.74 35.3314 9.81428 6.941
Li 13.74 35.3314 13.74 6.941
Li 13.74 35.3314 17.6657 6.941
Li 13.74 35.3314 21.5914 6.941
Li 13.74 35.3314 25.5171 6.941
Li 13.74 35.3314 29.4428 6.941
Li 13.74 35.3314 33.3685 6.941
Li 13.74 35.3314 37.2943 6.941
Li 17.6657 0 1.96286 6.941
Li 17.6657 0 5.88857 6.941
Li 17.6657 0 9.81428 6.941
Li 17.6657 0 13.74 6.941
Li 17.6657 0 17.6657 6.941
Li 17.6657 0 21.5914 6.941
Li 17.6657 0 25.5171 6.941
Li 17.6657 0 29.4428 6.941
Li 17.6657 0 33.3685 6.941
Li 17.6657 0 37.2943 6.941
Li 17.6657 3.92571 1.96286 6.941
Li 17.6657 3.92571 5.88857 6.941
Li 17.6657 3.92571 9.81428 6.941
Li 17.6657 3.92571 13.74 6.941
Li 17.6657 3.92571 17.6657 6.941
Li 17.6657 3.92571 21.5914 6.941
Li 17.6657 3.92571 25.5171 6.941
Li 17.6657 3.92571 29.4428 6.941
Li 17.6657 3.92571 33.3685 6.941
Li 17.6657 3.92571 37.2943 6.941
Li 17.6657 7.85142 1.96286 6.941
Li 17.6657 7.85142 5.88857 6.941
Li 17.6657 7.85142 9.81428 6.941
Li 17.6657 7.85142 13.74 6.941
Li 17.6657 7.85142 17.6657 6.941
Li 17.6657 7.85142 21.5914 6.941
Li 17.6657 7.85142 25.5171 6.941
Li 17.6657 7.85142 29.4428 6.941
Li 17.6657 7.85142 33.3685 6.941
Li 17.6657 7.85142 37.2943 6.941
Li 17.6657 11.7771 1.96286 6.941
Li 17.6657 11.7771 5.88857 6.941
Li 17.6657 11.7771 9.81428 6.941
Li 17.6657 11.7771 13.74 6.941
Li 17.6657 11.7771 17.6657 6.941
Li 17.6657 11.7771 21.5914 6.941
Li 17.6657 11.7771 25.5171 6.941
Li 17.6657 11.7771 29.4428 6.941
Li 17.6657 11.7771 33.3685 6.941
Li 17.6657 11.7771 37.2943 6.941
Li 17.6657 15.7028 1.96286 6.941
Li 17.6657 15.7028 5.88857 6.941
Li 17.6657 15.7028 9.81428 6.941
Li 17.6657 15.7028 13.74 6.941
Li 17.6657 15.7028 17.6657 6.941
Li 17.6657 15.7028 21.5914 6.941
Li 17.6657 15.7028 25.5171 6.941
Li 17.6657 15.7028 29.4428 6.941
Li 17.6657 15.7028 33.3685 6.941
Li 17.6657 15.7028 37.2943 6.941
Li 17.6657 19.6286 1.96286 6.941
Li 17.6657 19.6286 5.88857 6.941
Li 17.6657 19.6286 9.81428 6.941
Li 17.6657 19.6286 13.74 6.941
Li 17.6657 19.6286 17.6657 6.941
Li 17.6657 19.6286 21.5914 6.941
Li 17.6657 19.6286 25.5171 6.941
Li 17.6657 19.6286 29.4428 6.941
Li 17.6657 19.6286 33.3685 6.941
Li 17.6657 19.6286 37.2943 6.941
Li 17.6657 23.5543 1.96286 6.941
Li 17.6657 23.5543 5.88857 6.941
Li 17.6657 23.5543 9.81428 6.941
Li 17.6657 23.5543 13.74 6.941
Li 17.6657 23.5543 17.6657 6.941
Li 17.6657 23.5543 21.5914 6.941
Li 17.6657 23.5543 25.5171 6.941
Li 17.6657 23.5543 29.4428 6.941
Li 17.6657 23.5543 33.3685 6.941
Li 17.6657 23.5543 37.2943 6.941
Li 17.6657 27.48 1.96286 6.941
Li 17.6657 27.48 5.88857 6.941
Li 17.6657 27.48 9.81428 6.941
Li 17.6657 27.48 13.74 6.941
Li 17.6657 27.48 17.6657 6.941
Li 17.6657 27.48 21.5914 6.941
Li 17.6657 27.48 25.5171 6.941
Li 17.6657 27.48 29.4428 6.941
Li 17.6657 27.48 33.3685 6.941
Li 17.6657 27.48 37.2943 6.941
Li 17.6657 31.4057 1.96286 6.941
Li 17.6657 31.4057 5.88857 6.941
Li 17.6657 31.4057 9.81428 6.941
Li 17.6657 31.4057 13.74 6.941
Li 17.6657 31.4057 17.6657 6.941
Li 17.6657 31.4057 21.5914 6.941
Li 17.6657 31.4057 25.5171 6.941
Li 17.6657 31.4057 29.4428 6.941
Li 17.6657 31.4057 33.3685 6.941
Li 17.6657 31.4057 37.2943 6.941
Li 17.6657 35.3314 1.96286 6.941
Li 17.6657 35.3314 5.88857 6.941
Li 17.6657 35.3314 9.81428 6.941
Li 17.6657 35.3314 13.74 6.941
Li 17.6657 35.3314 17.6657 6.941
Li 17.6657 35.3314 21.5914 6.941
Li 17.6657 35.3314 25.5171 6.941
Li 17.6657 35.3314 29.4428 6.941
Li 17.6657 35.3314 33.3685 6.941
Li 17.6657 35.3314 37.2943 6.941
Li 21.5914 0 1.96286 6.941
Li 21.5914 0 5.88857 6.941
Li 21.5914 0 9.81428 6.941
Li 21.5914 0 13.74 6.941
Li 21.5914 0 17.6657 6.941
Li 21.5914 0 21.5914 6.941
Li 21.5914 0 25.5171 6.941
Li 21.5914 0 29.4428 6.941
Li 21.5914 0 33.3685 6.941
Li 21.5914 0 37.2943 6.941
Li 21.5914 3.92571 1.96286 6.941
Li 21.5914 3.92571 5.88857 6.941
Li 21.5914 3.92571 9.81428 6.941
Li 21.5914 3.92571 13.74 6.941
Li 21.5914 3.92571 17.6657 6.941
Li 21.5914 3.92571 21.5914 6.941
Li 21.5914 3.92571 25.5171 6.941
Li 21.5914 3.92571 29.4428 6.941
Li 21.5914 3.92571 33.3685 6.941
Li 21.5914 3.92571 37.2943 6.941
Li 21.5914 7.85142 1.96286 6.941
Li 21.5914 7.85142 5.88857 6.941
Li 21.5914 7.85142 9.81428 6.941
Li 21.5914 7.85142 13.74 6.941
Li 21.5914 7.85142 17.6657 6.941
Li 21.5914 7.85142 21.5914 6.941
Li 21.5914 7.85142 25.5171 6.941
Li 21.5914 7.85142 29.4428 6.941
Li 21.5914 7.85142 33.3685 6.941
Li 21.5914 7.85142 37.2943 6.941
Li 21.5914 11.7771 1.96286 6.941
Li 21.5914 11.7771 5.88857 6.941
Li 21.5914 11.7771 9.81428 6.941
Li 21.5914 11.7771 13.74 6.941
Li 21.5914 11.7771 17.6657 6.941
Li 21.5914 11.7771 21.5914 6.941
Li 21.5914 11.7771 25.5171 6.941
Li 21.5914 11.7771 29.4428 6.941
Li 21.5914 11.7771 33.3685 6.941
Li 21.5914 11.7771 37.2943 6.941
Li 21.5914 15.7028 1.96286 6.941
Li 21.5914 15.7028 5.88857 6.941
Li 21.5914 15.7028 9.81428 6.941
Li 21.5914 15.7028 13.74 6.941
Li 21.5914 15.7028 17.6657 6.941
Li 21.5914 15.7028 21.5914 6.941
Li 21.5914 15.7028 25.5171 6.941
Li 21.5914 15.7028 29.4428 6.941
Li 21.5914 15.7028 33.3685 6.941
Li 21.5914 15.7028 37.2943 6.941
Li 21.5914 19.6286 1.96286 6.941
Li 21.5914 19.6286 5.88857 6.941
Li 21.5914 19.6286 9.81428 6.941
Li 21.5914 19.6286 13.74 6.941
Li 21.5914 19.6286 17.6657 6.941
Li 21.5914 19.6286 21.5914 6.941
Li 21.5914 19.6286 25.5171 6.941
Li 21.5914 19.6286 29.4428 6.941
Li 21.5914 19.6286 33.3685 6.941
Li 21.5914 19.6286 37.2943 6.941
Li 21.5914 23.5543 1.96286 6.941
Li 21.5914 23.5543 5.88857 6.941
Li 21.5914 23.5543 9.81428 6.941
Li 21.5914 23.5543 13.74 6.941
Li 21.5914 23.5543 17.6657 6.941
Li 21.5914 23.5543 21.5914 6.941
Li 21.5914 23.5543 25.5171 6.941
Li 21.5914 23.5543 29.4428 6.941
Li 21.5914 23.5543 33.3685 6.941
Li 21.5914 23.5543 37.2943 6.941
Li 21.5914 27.48 1.96286 6.941
Li 21.5914 27.48 5.88857 6.941
Li 21.5914 27.48 9.81428 6.941
Li 21.5914 27.48 13.74 6.941
Li 21.5914 27.48 17.6657 6.941
Li 21.5914 27.48 21.5914 6.941
Li 21.5914 27.48 25.5171 6.941
Li 21.5914 27.48 29.4428 6.941
Li 21.5914 27.48 33.3685 6.941
Li 21.5914 27.48 37.2943 6.941
Li 21.5914 31.4057 1.96286 6.941
Li 21.5914 31.4057 5.88857 6.941
Li 21.5914 31.4057 9.81428 6.941
Li 21.5914 31.4057 13.74 6.941
Li 21.5914 31.4057 17.6657 6.941
Li 21.5914 31.4057 21.5914 6.941
Li 21.5914 31.4057 25.5171 6.941
Li 21.5914 31.4057 29.4428 6.941
Li 21.5914 31.4057 33.3685 6.941
Li 21.5914 31.4057 37.2943 6.941
Li 21.5914 35.3314 1.96286 6.941
Li 21.5914 35.3314 5.88857 6.941
Li 21.5914 35.3314 9.81428 6.941
Li 21.5914 35.3314 13.74 6.941
Li 21.5914 35.3314 17.6657 6.941
Li 21.5914 35.3314 21.5914 6.941
Li 21.5914 35.3314 25.5171 6.941
Li 21.5914 35.3314 29.4428 6.941
Li 21.5914 35.3314 33.3685 6.941
Li 21.5914 35.3314 37.2943 6.941
Li 25.5171 0 1.96286 6.941
Li 25.5171 0 5.88857 6.941
Li 25.5171 0 9.81428 6.941
Li 25.5171 0 13.74 6.941
Li 25.5171 0 17.6657 6.941
Li 25.5171 0 21.5914 6.941
Li 25.5171 0 25.5171 6.941
Li 25.5171 0 29.4428 6.941
Li 25.5171 0 33.3685 6.941
Li 25.5171 0 37.2943 6.941
Li 25.5171 3.92571 1.96286 6.941
Li 25.5171 3.92571 5.88857 6.941
Li 25.5171 3.92571 9.81428 6.941
Li 25.5171 3.92571 13.74 6.941
Li 25.5171 3.92571 17.6657 6.941
Li 25.5171 3.92571 21.5914 6.941
Li 25.5171 3.92571 25.5171 6.941
Li 25.5171 3.92571 29.4428 6.941
Li 25.5171 3.92571 33.3685 6.941
Li 25.5171 3.92571 37.2943 6.941
Li 25.5171 7.85142 1.96286 6.941
Li 25.5171 7.85142 5.88857 6.941
Li 25.5171 7.85142 9.81428 6.941
Li 25.5171 7.85142 13.74 6.941
Li 25.5171 7.85142 17.6657 6.941
Li 25.5171 7.85142 21.5914 6.941
Li 25.5171 7.85142 25.5171 6.941
Li 25.5171 7.85142 29.4428 6.941
Li 25.5171 7.85142 33.3685 6.941
Li 25.5171 7.85142 37.2943 6.941
Li 25.5171 11.7771 1.96286 6.941
Li 25.5171 11.7771 5.88857 6.941
Li 25.5171 11.7771 9.81428 6.941
Li 25.5171 11.7771 13.74 6.941
Li 25.5171 11.7771 17.6657 6.941
Li 25.5171 11.7771 21.5914 6.941
Li 25.5171 11.7771 25.5171 6.941
Li 25.5171 11.7771 29.4428 6.941
Li 25.5171 11.7771 33.3685 6.941
Li 25.5171 11.7771 37.2943 6.941
Li 25.5171 15.7028 1.96286 6.941
Li 25.5171 15.7028 5.88857 6.941
Li 25.5171 15.7028 9.81428 6.941
Li 25.5171 15.7028 13.74 6.941
Li 25.5171 15.7028 17.6657 6.941
Li 25.5171 15.7028 21.5914 6.941
Li 25.5171 15.7028 25.5171 6.941
Li 25.5171 15.7028 29.4428 6.941
Li 25.5171 15.7028 33.3685 6.941
Li 25.5171 15.7028 37.2943 6.941
Li 25.5171 19.6286 1.96286 6.941
Li 25.5171 19.6286 5.88857 6.941
Li 25.5171 19.6286 9.81428 6.941
Li 25.5171 19.6286 13.74 6.941
Li 25.5171 19.6286 17.6657 6.941
Li 25.5171 19.6286 21.5914 6.941
Li 25.5171 19.6286 25.5171 6.941
Li 25.5171 19.6286 29.4428 6.941
Li 25.5171 19.6286 33.3685 6.941
Li 25.5171 19.6286 37.2943 6.941
Li 25.5171 23.5543 1.96286 6.941
Li 25.5171 23.5543 5.88857 6.941
Li 25.5171 23.5543 9.81428 6.941
Li 25.5171 23.5543 13.74 6.941
Li 25.5171 23.5543 17.6657 6.941
Li 25.5171 23.5543 21.5914 6.941
Li 25.5171 23.5543 25.5171 6.941
Li 25.5171 23.5543 29.4428 6.941
Li 25.5171 23.5543 33.3685 6.941
Li 25.5171 23.5543 37.2943 6.941
Li 25.5171 27.48 1.96286 6.941
Li 25.5171 27.48 5.88857 6.941
Li 25.5171 27.48 9.81428 6.941
Li 25.5171 27.48 13.74 6.941
Li 25.5171 27.48 17.6657 6.941
Li 25.5171 27.48 21.5914 6.941
Li 25.5171 27.48 25.5171 6.941
Li 25.5171 27.48 29.4428 6.941
Li 25.5171 27.48 33.3685 6.941
Li 25.5171 27.48 37.2943 6.941
Li 25.5171 31.4057 1.96286 6.941
Li 25.5171 31.4057 5.88857 6.941
Li 25.5171 31.4057 9.81428 6.941
Li 25.5171 31.4057 13.74 6.941
Li 25.5171 31.4057 17.6657 6.941
Li 25.5171 31.4057 21.5914 6.941
Li 25.5171 31.4057 25.5171 6.941
Li 25.5171 31.4057 29.4428 6.941
Li 25.5171 31.4057 33.3685 6.941
Li 25.5171 31.4057 37.2943 6.941
Li 25.5171 35.3314 1.96286 6.941
Li 25.5171 35.3314 5.88857 6.941
Li 25.5171 35.3314 9.81428 6.941
Li 25.5171 35.3314 13.74 6.941
Li 25.5171 35.3314 17.6657 6.941
Li 25.5171 35.3314 21.5914 6.941
Li 25.5171 35.3314 25.5171 6.941
Li 25.5171 35.3314 29.4428 6.941
Li 25.5171 35.3314 33.3685 6.941
Li 25.5171 35.3314 37.2943 6.941
Li 29.4428 0 1.96286 6.941
Li 29.4428 0 5.88857 6.941
Li 29.4428 0 9.81428 6.941
Li 29.4428 0 13.74 6.941
Li 29.4428 0 17.6657 6.941
Li 29.4428 0 21.5914 6.941
Li 29.4428 0 25.5171 6.941
Li 29.4428 0 29.4428 6.941
Li 29.4428 0 33.3685 6.941
Li 29.4428 0 37.2943 6.941
Li 29.4428 3.92571 1.96286 6.941
Li 29.4428 3.92571 5.88857 6.941
Li 29.4428 3.92571 9.81428 6.941
Li 29.4428 3.92571 13.74 6.941
Li 29.4428 3.92571 17.6657 6.941
Li 29.4428 3.92571 21.5914 6.941
Li 29.4428 3.92571 25.5171 6.941
Li 29.4428 3.92571 29.4428 6.941
Li 29.4428 3.92571 33.3685 6.941
Li 29.4428 3.92571 37.2943 6.941
Li 29.4428 7.85142 1.96286 6.941
Li 29.4428 7.85142 5.88857 6.941
Li 29.4428 7.85142 9.81428 6.941
Li 29.4428 7.85142 13.74 6.941
Li 29.4428 7.85142 17.6657 6.941
Li 29.4428 7.85142 21.5914 6.941
Li 29.4428 7.85142 25.5171 6.941
Li 29.4428 7.85142 29.4428 6.941
Li 29.4428 7.85142 33.3685 6.941
Li 29.4428 7.85142 37.2943 6.941
Li 29.4428 11.7771 1.96286 6.941
Li 29.4428 11.7771 5.88857 6.941
Li 29.4428 11.7771 9.81428 6.941
Li 29.4428 11.7771 13.74 6.941
Li 29.4428 11.7771 17.6657 6.941
Li 29.4428 11.7771 21.5914 6.941
Li 29.4428 11.7771 25.5171 6.941
Li 29.4428 11.7771 29.4428 6.941
Li 29.4428 11.7771 33.3685 6.941
Li 29.4428 11.7771 37.2943 6.941
Li 29.4428 15.7028 1.96286 6.941
Li 29.4428 15.7028 5.88857 6.941
Li 29.4428 15.7028 9.81428 6.941
Li 29.4428 15.7028 13.74 6.941
Li 29.4428 15.7028 17.6657 6.941
Li 29.4428 15.7028 21.5914 6.941
Li 29.4428 15.7028 25.5171 6.941
Li 29.4428 15.7028 29.4428 6.941
Li 29.4428 15.7028 33.3685 6.941
Li 29.4428 15.7028 37.2943 6.941
Li 29.4428 19.6286 1.96286 6.941
Li 29.4428 19.6286 5.88857 6.941
Li 29.4428 19.6286 9.81428 6.941
Li 29.4428 19.6286 13.74 6.941
Li 29.4428 19.6286 17.6657 6.941
Li 29.4428 19.6286 21.5914 6.941
Li 29.4428 19.6286 25.5171 6.941
Li 29.4428 19.6286 29.4428 6.941
Li 29.4428 19.6286 33.3685 6.941
Li 29.4428 19.6286 37.2943 6.941
Li 29.4428 23.5543 1.96286 6.941
Li 29.4428 23.5543 5.88857 6.941
Li 29.4428 23.5543 9.81428 6.941
Li 29.4428 23.5543 13.74 6.941
Li 29.4428 23.5543 17.6657 6.941
Li 29.4428 23.5543 21.5914 6.941
Li 29.4428 23.5543 25.5171 6.941
Li 29.4428 23.5543 29.4428 6.941
Li 29.4428 23.5543 33.3685 6.941
Li 29.4428 23.5543 37.2943 6.941
Li 29.4428 27.48 1.96286 6.941
Li 29.4428 27.48 5.88857 6.941
Li 29.4428 27.48 9.81428 6.941
Li 29.4428 27.48 13.74 6.941
Li 29.4428 27.48 17.6657 6.941
Li 29.4428 27.48 21.5914 6.941
Li 29.4428 27.48 25.5171 6.941
Li 29.4428 27.48 29.4428 6.941
Li 29.4428 27.48 33.3685 6.941
Li 29.4428 27.48 37.2943 6.941
Li 29.4428 31.4057 1.96286 6.941
Li 29.4428 31.4057 5.88857 6.941
Li 29.4428 31.4057 9.81428 6.941
Li 29.4428 31.4057 13.74 6.941
Li 29.4428 31.4057 17.6657 6.941
Li 29.4428 31.4057 21.5914 6.941
Li 29.4428 31.4057 25.5171 6.941
Li 29.4428 31.4057 29.4428 6.941
Li 29.4428 31.4057 33.3685 6.941
Li 29.4428 31.4057 37.2943 6.941
Li 29.4428 35.3314 1.96286 6.941
Li 29.4428 35.3314 5.88857 6.941
Li 29.4428 35.3314 9.81428 6.941
Li 29.4428 35.3314 13.74 6.941
Li 29.4428 35.3314 17.6657 6.941
Li 29.4428 35.3314 21.5914 6.941
Li 29.4428 35.3314 25.5171 6.941
Li 29.4428 35.3314 29.4428 6.941
Li 29.4428 35.3314 33.3685 6.941
Li 29.4428 35.3314 37.2943 6.941
Li 33.3685 0 1.96286 6.941
Li 33.3685 0 5.88857 6.941
Li 33.3685 0 9.81428 6.941
Li 33.3685 0 13.74 6.941
Li 33.3685 0 17.6657 6.941
Li 33.3685 0 21.5914 6.941
Li 33.3685 0 25.5171 6.941
Li 33.3685 0 29.4428 6.941
Li 33.3685 0 33.3685 6.941
Li 33.3685 0 37.2943 6.941
Li 33.3685 3.92571 1.96286 6.941
Li 33.3685 3.92571 5.88857 6.941
Li 33.3685 3.92571 9.81428 6.941
Li 33.3685 3.92571 13.74 6.941
Li 33.3685 3.92571 17.6657 6.941
Li 33.3685 3.92571 21.5914 6.941
Li 33.3685 3.92571 25.5171 6.941
Li 33.3685 3.92571 29.4428 6.941
Li 33.3685 3.92571 33.3685 6.941
Li 33.3685 3.92571 37.2943 6.941
Li 33.3685 7.85142 1.96286 6.941
Li 33.3685 7.85142 5.88857 6.941
Li 33.3685 7.85142 9.81428 6.941
Li 33.3685 7.85142 13.74 6.941
Li 33.3685 7.85142 17.6657 6.941
Li 33.3685 7.85142 21.5914 6.941
Li 33.3685 7.85142 25.5171 6.941
Li 33.3685 7.85142 29.4428 6.941
Li 33.3685 7.85142 33.3685 6.941
Li 33.3685 7.85142 37.2943 6.941
Li 33.3685 11.7771 1.96286 6.941
Li 33.3685 11.7771 5.88857 6.941
Li 33.3685 11.7771 9.81428 6.941
Li 33.3685 11.7771 13.74 6.941
Li 33.3685 11.7771 17.6657 6.941
Li 33.3685 11.7771 21.5914 6.941
Li 33.3685 11.7771 25.5171 6.941
Li 33.3685 11.7771 29.4428 6.941
Li 33.3685 11.7771 33.3685 6.941
Li 33.3685 11.7771 37.2943 6.941
Li 33.3685 15.7028 1.96286 6.941
Li 33.3685 15.7028 5.88857 6.941
Li 33.3685 15.7028 9.81428 6.941
Li 33.3685 15.7028 13.74 6.941
Li 33.3685 15.7028 17.6657 6.941
Li 33.3685 15.7028 21.5914 6.941
Li 33.3685 15.7028 25.5171 6.941
Li 33.3685 15.7028 29.4428 6.941
Li 33.3685 15.7028 33.3685 6.941
Li 33.3685 15.7028 37.2943 6.941
Li 33.3685 19.6286 1.96286 6.941
Li 33.3685 19.6286 5.88857 6.941
Li 33.3685 19.6286 9.81428 6.941
Li 33.3685 19.6286 13.74 6.941
Li 33.3685 19.6286 17.6657 6.941
Li 33.3685 19.6286 21.5914 6.941
Li 33.3685 19.6286 25.5171 6.941
Li 33.3685 19.6286 29.4428 6.941
Li 33.3685 19.6286 33.3685 6.941
Li 33.3685 19.6286 37.2943 6.941
Li 33.3685 23.5543 1.96286 6.941
Li 33.3685 23.5543 5.88857 6.941
Li 33.3685 23.5543 9.81428 6.941
Li 33.3685 23.5543 13.74 6.941
Li 33.3685 23.5543 17.6657 6.941
Li 33.3685 23.5543 21.5914 6.941
Li 33.3685 23.5543 25.5171 6.941
Li 33.3685 23.5543 29.4428 6.941
Li 33.3685 23.5543 33.3685 6.941
Li 33.3685 23.5543 37.2943 6.941
Li 33.3685 27.48 1.96286 6.941
Li 33.3685 27.48 5.88857 6.941
Li 33.3685 27.48 9.81428 6.941
Li 33.3685 27.48 13.74 6.941
Li 33.3685 27.48 17.6657 6.941
Li 33.3685 27.48 21.5914 6.941
Li 33.3685 27.48 25.5171 6.941
Li 33.3685 27.48 29.4428 6.941
Li 33.3685 27.48 33.3685 6.941
Li 33.3685 27.48 37.2943 6.941
Li 33.3685 31.4057 1.96286 6.941
Li 33.3685 31.4057 5.88857 6.941
Li 33.3685 31.4057 9.81428 6.941
Li 33.3685 31.4057 13.74 6.941
Li 33.3685 31.4057 17.6657 6.941
Li 33.3685 31.4057 21.5914 6.941
Li 33.3685 31.4057 25.5171 6.941
Li 33.3685 31.4057 29.4428 6.941
Li 33.3685 31.4057 33.3685 6.941
Li 33.3685 31.4057 37.2943 6.941
Li 33.3685 35.3314 1.96286 6.941
Li 33.3685 35.3314 5.88857 6.941
Li 33.3685 35.3314 9.81428 6.941
Li 33.3685 35.3314 13.74 6.941
Li 33.3685 35.3314 17.6657 6.941
Li 33.3685 35.3314 21.5914 6.941
Li 33.3685 35.3314 25.5171 6.941
Li 33.3685 35.3314 29.4428 6.941
Li 33.3685 35.3314 33.3685 6.941
Li 33.3685 35.3314 37.2943 6.941
Li 37.2943 0 1.96286 6.941
Li 37.2943 0 5.88857 6.941
Li 37.2943 0 9.81428 6.941
Li 37.2943 0 13.74 6.941
Li 37.2943 0 17.6657 6.941
Li 37.2943 0 21.5914 6.941
Li 37.2943 0 25.5171 6.941
Li 37.2943 0 29.4428 6.941
Li 37.2943 0 33.3685 6.941
Li 37.2943 0 37.2943 6.941
Li 37.2943 3.92571 1.96286 6.941
Li 37.2943 3.92571 5.88857 6.941
Li 37.2943 3.92571 9.81428 6.941
Li 37.2943 3.92571 13.74 6.941
Li 37.2943 3.92571 17.6657 6.941
Li 37.2943 3.92571 21.5914 6.941
Li 37.2943 3.92571 25.5171 6.941
Li 37.2943 3.92571 29.4428 6.941
Li 37.2943 3.92571 33.3685 6.941
Li 37.2943 3.92571 37.2943 6.941
Li 37.2943 7.85142 1.96286 6.941
Li 37.2943 7.85142 5.88857 6.941
Li 37.2943 7.85142 9.81428 6.941
Li 37.2943 7.85142 13.74 6.941
Li 37.2943 7.85142 17.6657 6.941
Li 37.2943 7.85142 21.5914 6.941
Li 37.2943 7.85142 25.5171 6.941
Li 37.2943 7.85142 29.4428 6.941
Li 37.2943 7.85142 33.3685 6.941
Li 37.2943 7.85142 37.2943 6.941
Li 37.2943 11.7771 1.96286 6.941
Li 37.2943 11.7771 5.88857 6.941
Li 37.2943 11.7771 9.81428 6.941
Li 37.2943 11.7771 13.74 6.941
Li 37.2943 11.7771 17.6657 6.941
Li 37.2943 11.7771 21.5914 6.941
Li 37.2943 11.7771 25.5171 6.941
Li 37.2943 11.7771 29.4428 6.941
Li 37.2943 11.7771 33.3685 6.941
Li 37.2943 11.7771 37.2943 6.941
Li 37.2943 15.7028 1.96286 6.941
Li 37.2943 15.7028 5.88857 6.941
Li 37.2943 15.7028 9.81428 6.941
Li 37.2943 15.7028 13.74 6.941
Li 37.2943 15.7028 17.6657 6.941
Li 37.2943 15.7028 21.5914 6.941
Li 37.2943 15.7028 25.5171 6.941
Li 37.2943 15.7028 29.4428 6.941
Li 37.2943 15.7028 33.3685 6.941
Li 37.2943 15.7028 37.2943 6.941
Li 37.2943 19.6286 1.96286 6.941
Li 37.2943 19.6286 5.88857 6.941
Li 37.2943 19.6286 9.81428 6.941
Li 37.2943 19.6286 13.74 6.941
Li 37.2943 19.6286 17.6657 6.941
Li 37.2943 19.6286 21.5914 6.941
Li 37.2943 19.6286 25.5171 6.941
Li 37.2943 19.6286 29.4428 6.941
Li 37.2943 19.6286 33.3685 6.941
Li 37.2943 19.6286 37.2943 6.941
Li 37.2943 23.5543 1.96286 6.941
Li 37.2943 23.5543 5.88857 6.941
Li 37.2943 23.5543 9.81428 6.941
Li 37.2943 23.5543 13.74 6.941
Li 37.2943 23.5543 17.6657 6.941
Li 37.2943 23.5543 21.5914 6.941
Li 37.2943 23.5543 25.5171 6.941
Li 37.2943 23.5543 29.4428 6.941
Li 37.2943 23.5543 33.3685 6.941
Li 37.2943 23.5543 37.2943 6.941
Li 37.2943 27.48 1.96286 6.941
Li 37.2943 27.48 5.88857 6.941
Li 37.2943 27.48 9.81428 6.941
Li 37.2943 27.48 13.74 6.941
Li 37.2943 27.48 17.6657 6.941
Li 37.2943 27.48 21.5914 6.941
Li 37.2943 27.48 25.5171 6.941
Li 37.2943 27.48 29.4428 6.941
Li 37.2943 27.48 33.3685 6.941
Li 37.2943 27.48 37.2943 6.941
Li 37.2943 31.4057 1.96286 6.941
Li 37.2943 31.4057 5.88857 6.941
Li 37.2943 31.4057 9.81428 6.941
Li 37.2943 31.4057 13.74 6.941
Li 37.2943 31.4057 17.6657 6.941
Li 37.2943 31.4057 21.5914 6.941
Li 37.2943 31.4057 25.5171 6.941
Li 37.2943 31.4057 29.4428 6.941
Li 37.2943 31.4057 33.3685 6.941
Li 37.2943 31.4057 37.2943 6.941
Li 37.2943 35.3314 1.96286 6.941
Li 37.2943 35.3314 5.88857 6.941
Li 37.2943 35.3314 9.81428 6.941
Li 37.2943 35.3314 13.74 6.941
Li 37.2943 35.3314 17.6657 6.941
Li 37.2943 35.3314 21.5914 6.941
Li 37.2943 35.3314 25.5171 6.941
Li 37.2943 35.3314 29.4428 6.941
Li 37.2943 35.3314 33.3685 6.941
Li 37.2943 35.3314 37.2943 6.941
Li 1.96286 1.96286 0 6.941
Li 1.96286 1.96286 3.92571 6.941
Li 1.96286 1.96286 7.85142 6.941
Li 1.96286 1.96286 11.7771 6.941
Li 1.96286 1.96286 15.7028 6.941
Li 1.96286 1.96286 19.6286 6.941
Li 1.96286 1.96286 23.5543 6.941
Li 1.96286 1.96286 27.48 6.941
Li 1.96286 1.96286 31.4057 6.941
Li 1.96286 1.96286 35.3314 6.941
Li 1.96286 5.88857 0 6.941
Li 1.96286 5.88857 3.92571 6.941
Li 1.96286 5.88857 7.85142 6.941
Li 1.96286 5.88857 11.7771 6.941
Li 1.96286 5.88857 15.7028 6.941
Li 1.96286 5.88857 19.6286 6.941
Li 1.96286 5.88857 23.5543 6.941
Li 1.96286 5.88857 27.48 6.941
Li 1.96286 5.88857 31.4057 6.941
Li 1.96286 5.88857 35.3314 6.941
Li 1.96286 9.81428 0 6.941
Li 1.96286 9.81428 3.92571 6.941
Li 1.96286 9.81428 7.85142 6.941
Li 1.96286 9.81428 11.7771 6.941
Li 1.96286 9.81428 15.7028 6.941
Li 1.96286 9.81428 19.6286 6.941
Li 1.96286 9.81428 23.5543 6.941
Li 1.96286 9.81428 27.48 6.941
Li 1.96286 9.81428 31.4057 6.941
Li 1.96286 9.81428 35.3314 6.941
Li 1.96286 13.74 0 6.941
Li 1.96286 13.74 3.92571 6.941
Li 1.96286 13.74 7.85142 6.941
Li 1.96286 13.74 11.7771 6.941
Li 1.96286 13.74 15.7028 6.941
Li 1.96286 13.74 19.6286 6.941
Li 1.96286 13.74 23.5543 6.941
Li 1.96286 13.74 27.48 6.941
Li 1.96286 13.74 31.4057 6.941
Li 1.96286 13.74 35.3314 6.941
Li 1.96286 17.6657 0 6.941
Li 1.96286 17.6657 3.92571 6.941
Li 1.96286 17.6657 7.85142 6.941
Li 1.96286 17.6657 11.7771 6.941
Li 1.96286 17.6657 15.7028 6.941
Li 1.96286 17.6657 19.6286 6.941
Li 1.96286 17.6657 23.5543 6.941
Li 1.96286 17.6657 27.48 6.941
Li 1.96286 17.6657 31.4057 6.941
Li 1.96286 17.6657 35.3314 6.941
Li 1.96286 21.5914 0 6.941
Li 1.96286 21.5914 3.92571 6.941
Li 1.96286 21.5914 7.85142 6.941
Li 1.96286 21.5914 11.7771 6.941
Li 1.96286 21.5914 15.7028 6.941
Li 1.96286 21.5914 19.6286 6.941
Li 1.96286 21.5914 23.5543 6.941
Li 1.96286 21.5914 27.48 6.941
Li 1.96286 21.5914 31.4057 6.941
Li 1.96286 21.5914 35.3314 6.941
Li 1.96286 25.5171 0 6.941
Li 1.96286 25.5171 3.92571 6.941
Li 1.96286 25.5171 7.85142 6.941
Li 1.96286 25.5171 11.7771 6.941
Li 1.96286 25.5171 15.7028 6.941
Li 1.96286 25.5171 19.6286 6.941
Li 1.96286 25.5171 23.5543 6.941
Li 1.96286 25.5171 27.48 6.941
Li 1.96286 25.5171 31.4057 6.941
Li 1.96286 25.5171 35.3314 6.941
Li 1.96286 29.4428 0 6.941
Li 1.96286 29.4428 3.92571 6.941
Li 1.96286 29.4428 7.85142 6.941
Li 1.96286 29.4428 11.7771 6.941
Li 1.96286 29.4428 15.7028 6.941
Li 1.96286 29.4428 19.6286 6.941
Li 1.96286 29.4428 23.5543 6.941
Li 1.96286 29.4428 27.48 6.941
Li 1.96286 29.4428 31.4057 6.941
Li 1.96286 29.4428 35.3314 6.941
Li 1.96286 33.3685 0 6.941
Li 1.96286 33.3685 3.92571 6.941
Li 1.96286 33.3685 7.85142 6.941
Li 1.96286 33.3685 11.7771 6.941
Li 1.96286 33.3685 15.7028 6.941
Li 1.96286 33.3685 19.6286 6.941
Li 1.96286 33.3685 23.5543 6.941
Li 1.96286 33.3685 27.48 6.941
Li 1.96286 33.3685 31.4057 6.941
Li 1.96286 33.3685 35.3314 6.941
Li 1.96286 37.2943 0 6.941
Li 1.96286 37.2943 3.92571 6.941
Li 1.96286 37.2943 7.85142 6.941
Li 1.96286 37.2943 11.7771 6.941
Li 1.96286 37.2943 15.7028 6.941
Li 1.96286 37.2943 19.6286 6.941
Li 1.96286 37.2943 23.5543 6.941
Li 1.96286 37.2943 27.48 6.941
Li 1.96286 37.2943 31.4057 6.941
Li 1.96286 37.2943 35.3314 6.941
Li 5.88857 1.96286 0 6.941
Li 5.88857 1.96286 3.92571 6.941
Li 5.88857 1.96286 7.85142 6.941
Li 5.88857 1.96286 11.7771 6.941
Li 5.88857 1.96286 15.7028 6.941
Li 5.88857 1.96286 19.6286 6.941
Li 5.88857 1.96286 23.5543 6.941
Li 5.88857 1.96286 27.48 6.941
Li 5.88857 1.96286 31.4057 6.941
Li 5.88857 1.96286 35.3314 6.941
Li 5.88857 5.88857 0 6.941
Li 5.88857 5.88857 3.92571 6.941
Li 5.88857 5.88857 7.85142 6.941
Li 5.88857 5.88857 11.7771 6.941
Li 5.88857 5.88857 15.7028 6.941
Li 5.88857 5.88857 19.6286 6.941
Li 5.88857 5.88857 23.5543 6.941
Li 5.88857 5.88857 27.48 6.941
Li 5.88857 5.88857 31.4057 6.941
Li 5.88857 5.88857 35.3314 6.941
Li 5.88857 9.81428 0 6.941
Li 5.88857 9.81428 3.92571 6.941
Li 5.88857 9.81428 7.85142 6.941
Li 5.88857 9.81428 11.7771 6.941
Li 5.88857 9.81428 15.7028 6.941
Li 5.88857 9.81428 19.6286 6.941
Li 5.88857 9.81428 23.5543 6.941
Li 5.88857 9.81428 27.48 6.941
Li 5.88857 9.81428 31.4057 6.941
Li 5.88857 9.81428 35.3314 6.941
Li 5.88857 13.74 0 6.941
Li 5.88857 13.74 3.92571 6.941
Li 5.88857 13.74 7.85142 6.941
Li 5.88857 13.74 11.7771 6.941
Li 5.88857 13.74 15.7028 6.941
Li 5.88857 13.74 19.6286 6.941
Li 5.88857 13.74 23.5543 6.941
Li 5.88857 13.74 27.48 6.941
Li 5.88857 13.74 31.4057 6.941
Li 5.88857 13.74 35.3314 6.941
Li 5.88857 17.6657 0 6.941
Li 5.88857 17.6657 3.92571 6.941
Li 5.88857 17.6657 7.85142 6.941
Li 5.88857 17.6657 11.7771 6.941
Li 5.88857 17.6657 15.7028 6.941
Li 5.88857 17.6657 19.6286 6.941
Li 5.88857 17.6657 23.5543 6.941
Li 5.88857 17.6657 27.48 6.941
Li 5.88857 17.6657 31.4057 6.941
Li 5.88857 17.6657 35.3314 6.941
Li 5.88857 21.5914 0 6.941
Li 5.88857 21.5914 3.92571 6.941
Li 5.88857 21.5914 7.85142 6.941
Li 5.88857 21.5914 11.7771 6.941
Li 5.88857 21.5914 15.7028 6.941
Li 5.88857 21.5914 19.6286 6.941
Li 5.88857 21.5914 23.5543 6.941
Li 5.88857 21.5914 27.48 6.941
Li 5.88857 21.5914 31.4057 6.941
Li 5.88857 21.5914 35.3314 6.941
Li 5.88857 25.5171 0 6.941
Li 5.88857 25.5171 3.92571 6.941
Li 5.88857 25.5171 7.85142 6.941
Li 5.88857 25.5171 11.7771 6.941
Li 5.88857 25.5171 15.7028 6.941
Li 5.88857 25.5171 19.6286 6.941
Li 5.88857 25.5171 23.5543 6.941
Li 5.88857 25.5171 27.48 6.941
Li 5.88857 25.5171 31.4057 6.941
Li 5.88857 25.5171 35.3314 6.941
Li 5.88857 29.4428 0 6.941
Li 5.88857 29.4428 3.92571 6.941
Li 5.88857 29.4428 7.85142 6.941
Li 5.88857 29.4428 11.7771 6.941
Li 5.88857 29.4428 15.7028 6.941
Li 5.88857 29.4428 19.6286 6.941
Li 5.88857 29.4428 23.5543 6.941
Li 5.88857 29.4428 27.48 6.941
Li 5.88857 29.4428 31.4057 6.941
Li 5.88857 29.4428 35.3314 6.941
Li 5.88857 33.3685 0 6.941
Li 5.88857 33.3685 3.92571 6.941
Li 5.88857 33.3685 7.85142 6.941
Li 5.88857 33.3685 11.7771 6.941
Li 5.88857 33.3685 15.7028 6.941
Li 5.88857 33.3685 19.6286 6.941
Li 5.88857 33.3685 23.5543 6.941
Li 5.88857 33.3685 27.48 6.941
Li 5.88857 33.3685 31.4057 6.941
Li 5.88857 33.3685 35.3314 6.941
Li 5.88857 37.2943 0 6.941
Li 5.88857 37.2943 3.92571 6.941
Li 5.88857 37.2943 7.85142 6.941
Li 5.88857 37.2943 11.7771 6.941
Li 5.88857 37.2943 15.7028 6.941
Li 5.88857 37.2943 19.6286 6.941
Li 5.88857 37.2943 23.5543 6.941
Li 5.88857 37.2943 27.48 6.941
Li 5.88857 37.2943 31.4057 6.941
Li 5.88857 37.2943 35.3314 6.941
Li 9.81428 1.96286 0 6.941
Li 9.81428 1.96286 3.92571 6.941
Li 9.81428 1.96286 7.85142 6.941
Li 9.81428 1.96286 11.7771 6.941
Li 9.81428 1.96286 15.7028 6.941
Li 9.81428 1.96286 19.6286 6.941
Li 9.81428 1.96286 23.5543 6.941
Li 9.81428 1.96286 27.48 6.941
Li 9.81428 1.96286 31.4057 6.941
Li 9.81428 1.96286 35.3314 6.941
Li 9.81428 5.88857 0 6.941
Li 9.81428 5.88857 3.92571 6.941
Li 9.81428 5.88857 7.85142 6.941
Li 9.81428 5.88857 11.7771 6.941
Li 9.81428 5.88857 15.7028 6.941
Li 9.81428 5.88857 19.6286 6.941
Li 9.81428 5.88857 23.5543 6.941
Li 9.81428 5.88857 27.48 6.941
Li 9.81428 5.88857 31.4057 6.941
Li 9.81428 5.88857 35.3314 6.941
Li 9.81428 9.81428 0 6.941
Li 9.81428 9.81428 3.92571 6.941
Li 9.81428 9.81428 7.85142 6.941
Li 9.81428 9.81428 11.7771 6.941
Li 9.81428 9.81428 15.7028 6.941
Li 9.81428 9.81428 19.6286 6.941
Li 9.81428 9.81428 23.5543 6.941
Li 9.81428 9.81428 27.48 6.941
Li 9.81428 9.81428 31.4057 6.941
Li 9.81428 9.81428 35.3314 6.941
Li 9.81428 13.74 0 6.941
Li 9.81428 13.74 3.92571 6.941
Li 9.81428 13.74 7.85142 6.941
Li 9.81428 13.74 11.7771 6.941
Li 9.81428 13.74 15.7028 6.941
Li 9.81428 13.74 19.6286 6.941
Li 9.81428 13.74 23.5543 6.941
Li 9.81428 13.74 27.48 6.941
Li 9.81428 13.74 31.4057 6.941
Li 9.81428 13.74 35.3314 6.941
Li 9.81428 17.6657 0 6.941
Li 9.81428 17.6657 3.92571 6.941
Li 9.81428 17.6657 7.85142 6.941
Li 9.81428 17.6657 11.7771 6.941
Li 9.81428 17.6657 15.7028 6.941
Li 9.81428 17.6657 19.6286 6.941
Li 9.81428 17.6657 23.5543 6.941
Li 9.81428 17.6657 27.48 6.941
Li 9.81428 17.6657 31.4057 6.941
Li 9.81428 17.6657 35.3314 6.941
Li 9.81428 21.5914 0 6.941
Li 9.81428 21.5914 3.92571 6.941
Li 9.81428 21.5914 7.85142 6.941
Li 9.81428 21.5914 11.7771 6.941
Li 9.81428 21.5914 15.7028 6.941
Li 9.81428 21.5914 19.6286 6.941
Li 9.81428 21.5914 23.5543 6.941
Li 9.81428 21.5914 27.48 6.941
Li 9.81428 21.5914 31.4057 6.941
Li 9.81428 21.5914 35.3314 6.941
Li 9.81428 25.5171 0 6.941
Li 9.81428 25.5171 3.92571 6.941
Li 9.81428 25.5171 7.85142 6.941
Li 9.81428 25.5171 11.7771 6.941
Li 9.81428 25.5171 15.7028 6.941
Li 9.81428 25.5171 19.6286 6.941
Li 9.81428 25.5171 23.5543 6.941
Li 9.81428 25.5171 27.48 6.941
Li 9.81428 25.5171 31.4057 6.941
Li 9.81428 25.5171 35.3314 6.941
Li 9.81428 29.4428 0 6.941
Li 9.81428 29.4428 3.92571 6.941
Li 9.81428 29.4428 7.85142 6.941
Li 9.81428 29.4428 11.7771 6.941
Li 9.81428 29.4428 15.7028 6.941
Li 9.81428 29.4428 19.6286 6.941
Li 9.81428 29.4428 23.5543 6.941
Li 9.81428 29.4428 27.48 6.941
Li 9.81428 29.4428 31.4057 6.941
Li 9.81428 29.4428 35.3314 6.941
Li 9.81428 33.3685 0 6.941
Li 9.81428 33.3685 3.92571 6.941
Li 9.81428 33.3685 7.85142 6.941
Li 9.81428 33.3685 11.7771 6.941
Li 9.81428 33.3685 15.7028 6.941
Li 9.81428 33.3685 19.6286 6.941
Li 9.81428 33.3685 23.5543 6.941
Li 9.81428 33.3685 27.48 6.941
Li 9.81428 33.3685 31.4057 6.941
Li 9.81428 33.3685 35.3314 6.941
Li 9.81428 37.2943 0 6.941
Li 9.81428 37.2943 3.92571 6.941
Li 9.81428 37.2943 7.85142 6.941
Li 9.81428 37.2943 11.7771 6.941
Li 9.81428 37.2943 15.7028 6.941
Li 9.81428 37.2943 19.6286 6.941
Li 9.81428 37.2943 23.5543 6.941
Li 9.81428 37.2943 27.48 6.941
Li 9.81428 37.2943 31.4057 6.941
Li 9.81428 37.2943 35.3314 6.941
Li 13.74 1.96286 0 6.941
Li 13.74 1.96286 3.92571 6.941
Li 13.74 1.96286 7.85142 6.941
Li 13.74 1.96286 11.7771 6.941
Li 13.74 1.96286 15.7028 6.941
Li 13.74 1.96286 19.6286 6.941
Li 13.74 1.96286 23.5543 6.941
Li 13.74 1.96286 27.48 6.941
Li 13.74 1.96286 31.4057 6.941
Li 13.74 1.96286 35.3314 6.941
Li 13.74 5.88857 0 6.941
Li 13.74 5.88857 3.92571 6.941
Li 13.74 5.88857 7.85142 6.941
Li 13.74 5.88857 11.7771 6.941
Li 13.74 5.88857 15.7028 6.941
Li 13.74 5.88857 19.6286 6.941
Li 13.74 5.88857 23.5543 6.941
Li 13.74 5.88857 27.48 6.941
Li 13.74 5.88857 31.4057 6.941
Li 13.74 5.88857 35.3314 6.941
Li 13.74 9.81428 0 6.941
Li 13.74 9.81428 3.92571 6.941
Li 13.74 9.81428 7.85142 6.941
Li 13.74 9.81428 11.7771 6.941
Li 13.74 9.81428 15.7028 6.941
Li 13.74 9.81428 19.6286 6.941
Li 13.74 9.81428 23.5543 6.941
Li 13.74 9.81428 27.48 6.941
Li 13.74 9.81428 31.4057 6.941
Li 13.74 9.81428 35.3314 6.941
Li 13.74 13.74 0 6.941
Li 13.74 13.74 3.92571 6.941
Li 13.74 13.74 7.85142 6.941
Li 13.74 13.74 11.7771 6.941
Li 13.74 13.74 15.7028 6.941
Li 13.74 13.74 19.6286 6.941
Li 13.74 13.74 23.5543 6.941
Li 13.74 13.74 27.48 6.941
Li 13.74 13.74 31.4057 6.941
Li 13.74 13.74 35.3314 6.941
Li 13.74 17.6657 0 6.941
Li 13.74 17.6657 3.92571 6.941
Li 13.74 17.6657 7.85142 6.941
Li 13.74 17.6657 11.7771 6.941
Li 13.74 17.6657 15.7028 6.941
Li 13.74 17.6657 19.6286 6.941
Li 13.74 17.6657 23.5543 6.941
Li 13.74 17.6657 27.48 6.941
Li 13.74 17.6657 31.4057 6.941
Li 13.74 17.6657 35.3314 6.941
Li 13.74 21.5914 0 6.941
Li 13.74 21.5914 3.92571 6.941
Li 13.74 21.5914 7.85142 6.941
Li 13.74 21.5914 11.7771 6.941
Li 13.74 21.5914 15.7028 6.941
Li 13.74 21.5914 19.6286 6.941
Li 13.74 21.5914 23.5543 6.941
Li 13.74 21.5914 27.48 6.941
Li 13.74 21.5914 31.4057 6.941
Li 13.74 21.5914 35.3314 6.941
Li 13.74 25.5171 0 6.941
Li 13.74 25.5171 3.92571 6.941
Li 13.74 25.5171 7.85142 6.941
Li 13.74 25.5171 11.7771 6.941
Li 13.74 25.5171 15.7028 6.941
Li 13.74 25.5171 19.6286 6.941
Li 13.74 25.5171 23.5543 6.941
Li 13.74 25.5171 27.48 6.941
Li 13.74 25.5171 31.4057 6.941
Li 13.74 25.5171 35.3314 6.941
Li 13.74 29.4428 0 6.941
Li 13.74 29.4428 3.92571 6.941
Li 13.74 29.4428 7.85142 6.941
Li 13.74 29.4428 11.7771 6.941
Li 13.74 29.4428 15.7028 6.941
Li 13.74 29.4428 19.6286 6.941
Li 13.74 29.4428 23.5543 6.941
Li 13.74 29.4428 27.48 6.941
Li 13.74 29.4428 31.4057 6.941
Li 13.74 29.4428 35.3314 6.941
Li 13.74 33.3685 0 6.941
Li 13.74 33.3685 3.92571 6.941
Li 13.74 33.3685 7.85142 6.941
Li 13.74 33.3685 11.7771 6.941
Li 13.74 33.3685 15.7028 6.941
Li 13.74 33.3685 19.6286 6.941
Li 13.74 33.3685 23.5543 6.941
Li 13.74 33.3685 27.48 6.941
Li 13.74 33.3685 31.4057 6.941
Li 13.74 33.3685 35.3314 6.941
Li 13.74 37.2943 0 6.941
Li 13.74 37.2943 3.92571 6.941
Li 13.74 37.2943 7.85142 6.941
Li 13.74 37.2943 11.7771 6.941
Li 13.74 37.2943 15.7028 6.941
Li 13.74 37.2943 19.6286 6.941
Li 13.74 37.2943 23.5543 6.941
Li 13.74 37.2943 27.48 6.941
Li 13.74 37.2943 31.4057 6.941
Li 13.74 37.2943 35.3314 6.941
Li 17.6657 1.96286 0 6.941
Li 17.6657 1.96286 3.92571 6.941
Li 17.6657 1.96286 7.85142 6.941
Li 17.6657 1.96286 11.7771 6.941
Li 17.6657 1.96286 15.7028 6.941
Li 17.6657 1.96286 19.6286 6.941
Li 17.6657 1.96286 23.5543 6.941
Li 17.6657 1.96286 27.48 6.941
Li 17.6657 1.96286 31.4057 6.941
Li 17.6657 1.96286 35.3314 6.941
Li 17.6657 5.88857 0 6.941
Li 17.6657 5.88857 3.92571 6.941
Li 17.6657 5.88857 7.85142 6.941
Li 17.6657 5.88857 11.7771 6.941
Li 17.6657 5.88857 15.7028 6.941
Li 17.6657 5.88857 19.6286 6.941
Li 17.6657 5.88857 23.5543 6.941
Li 17.6657 5.88857 27.48 6.941
Li 17.6657 5.88857 31.4057 6.941
Li 17.6657 5.88857 35.3314 6.941
Li 17.6657 9.81428 0 6.941
Li 17.6657 9.81428 3.92571 6.941
Li 17.6657 9.81428 7.85142 6.941
Li 17.6657 9.81428 11.7771 6.941
Li 17.6657 9.81428 15.7028 6.941
Li 17.6657 9.81428 19.6286 6.941
Li 17.6657 9.81428 23.5543 6.941
Li 17.6657 9.81428 27.48 6.941
Li 17.6657 9.81428 31.4057 6.941
Li 17.6657 9.81428 35.3314 6.941
Li 17.6657 13.74 0 6.941
Li 17.6657 13.74 3.92571 6.941
Li 17.6657 13.74 7.85142 6.941
Li 17.6657 13.74 11.7771 6.941
Li 17.6657 13.74 15.7028 6.941
Li 17.6657 13.74 19.6286 6.941
Li 17.6657 13.74 23.5543 6.941
Li 17.6657 13.74 27.48 6.941
Li 17.6657 13.74 31.4057 6.941
Li 17.6657 13.74 35.3314 6.941
Li 17.6657 17.6657 0 6.941
Li 17.6657 17.6657 3.92571 6.941
Li 17.6657 17.6657 7.85142 6.941
Li 17.6657 17.6657 11.7771 6.941
Li 17.6657 17.6657 15.7028 6.941
Li 17.6657 17.6657 19.6286 6.941
Li 17.6657 17.6657 23.5543 6.941
Li 17.6657 17.6657 27.48 6.941
Li 17.6657 17.6657 31.4057 6.941
Li 17.6657 17.6657 35.3314 6.941
Li 17.6657 21.5914 0 6.941
Li 17.6657 21.5914 3.92571 6.941
Li 17.6657 21.5914 7.85142 6.941
Li 17.6657 21.5914 11.7771 6.941
Li 17.6657 21.5914 15.7028 6.941
Li 17.6657 21.5914 19.6286 6.941
Li 17.6657 21.5914 23.5543 6.941
Li 17.6657 21.5914 27.48 6.941
Li 17.6657 21.5914 31.4057 6.941
Li 17.6657 21.5914 35.3314 6.941
Li 17.6657 25.5171 0 6.941
Li 17.6657 25.5171 3.92571 6.941
Li 17.6657 25.5171 7.85142 6.941
Li 17.6657 25.5171 11.7771 6.941
Li 17.6657 25.5171 15.7028 6.941
Li 17.6657 25.5171 19.6286 6.941
Li 17.6657 25.5171 23.5543 6.941
Li 17.6657 25.5171 27.48 6.941
Li 17.6657 25.5171 31.4057 6.941
Li 17.6657 25.5171 35.3314 6.941
Li 17.6657 29.4428 0 6.941
Li 17.6657 29.4428 3.92571 6.941
Li 17.6657 29.4428 7.85142 6.941
Li 17.6657 29.4428 11.7771 6.941
Li 17.6657 29.4428 15.7028 6.941
Li 17.6657 29.4428 19.6286 6.941
Li 17.6657 29.4428 23.5543 6.941
Li 17.6657 29.4428 27.48 6.941
Li 17.6657 29.4428 31.4057 6.941
Li 17.6657 29.4428 35.3314 6.941
Li 17.6657 33.3685 0 6.941
Li 17.6657 33.3685 3.92571 6.941
Li 17.6657 33.3685 7.85142 6.941
Li 17.6657 33.3685 11.7771 6.941
Li 17.6657 33.3685 15.7028 6.941
Li 17.6657 33.3685 19.6286 6.941
Li 17.6657 33.3685 23.5543 6.941
Li 17.6657 33.3685 27.48 6.941
Li 17.6657 33.3685 31.4057 6.941
Li 17.6657 33.3685 35.3314 6.941
Li 17.6657 37.2943 0 6.941
Li 17.6657 37.2943 3.92571 6.941
Li 17.6657 37.2943 7.85142 6.941
Li 17.6657 37.2943 11.7771 6.941
Li 17.6657 37.2943 15.7028 6.941
Li 17.6657 37.2943 19.6286 6.941
Li 17.6657 37.2943 23.5543 6.941
Li 17.6657 37.2943 27.48 6.941
Li 17.6657 37.2943 31.4057 6.941
Li 17.6657 37.2943 35.3314 6.941
Li 21.5914 1.96286 0 6.941
Li 21.5914 1.96286 3.92571 6.941
Li 21.5914 1.96286 7.85142 6.941
Li 21.5914 1.96286 11.7771 6.941
Li 21.5914 1.96286 15.7028 6.941
Li 21.5914 1.96286 19.6286 6.941
Li 21.5914 1.96286 23.5543 6.941
Li 21.5914 1.96286 27.48 6.941
Li 21.5914 1.96286 31.4057 6.941
Li 21.5914 1.96286 35.3314 6.941
Li 21.5914 5.88857 0 6.941
Li 21.5914 5.88857 3.92571 6.941
Li 21.5914 5.88857 7.85142 6.941
Li 21.5914 5.88857 11.7771 6.941
Li 21.5914 5.88857 15.7028 6.941
Li 21.5914 5.88857 19.6286 6.941
Li 21.5914 5.88857 23.5543 6.941
Li 21.5914 5.88857 27.48 6.941
Li 21.5914 5.88857 31.4057 6.941
Li 21.5914 5.88857 35.3314 6.941
Li 21.5914 9.81428 0 6.941
Li 21.5914 9.81428 3.92571 6.941
Li 21.5914 9.81428 7.85142 6.941
Li 21.5914 9.81428 11.7771 6.941
Li 21.5914 9.81428 15.7028 6.941
Li 21.5914 9.81428 19.6286 6.941
Li 21.5914 9.81428 23.5543 6.941
Li 21.5914 9.81428 27.48 6.941
Li 21.5914 9.81428 31.4057 6.941
Li 21.5914 9.81428 35.3314 6.941
Li 21.5914 13.74 0 6.941
Li 21.5914 13.74 3.92571 6.941
Li 21.5914 13.74 7.85142 6.941
Li 21.5914 13.74 11.7771 6.941
Li 21.5914 13.74 15.7028 6.941
Li 21.5914 13.74 19.6286 6.941
Li 21.5914 13.74 23.5543 6.941
Li 21.5914 13.74 27.48 6.941
Li 21.5914 13.74 31.4057 6.941
Li 21.5914 13.74 35.3314 6.941
Li 21.5914 17.6657 0 6.941
Li 21.5914 17.6657 3.92571 6.941
Li 21.5914 17.6657 7.85142 6.941
Li 21.5914 17.6657 11.7771 6.941
Li 21.5914 17.6657 15.7028 6.941
Li 21.5914 17.6657 19.6286 6.941
Li 21.5914 17.6657 23.5543 6.941
Li 21.5914 17.6657 27.48 6.941
Li 21.5914 17.6657 31.4057 6.941
Li 21.5914 17.6657 35.3314 6.941
Li 21.5914 21.5914 0 6.941
Li 21.5914 21.5914 3.92571 6.941
Li 21.5914 21.5914 7.85142 6.941
Li 21.5914 21.5914 11.7771 6.941
Li 21.5914 21.5914 15.7028 6.941
Li 21.5914 21.5914 19.6286 6.941
Li 21.5914 21.5914 23.5543 6.941
Li 21.5914 21.5914 27.48 6.941
Li 21.5914 21.5914 31.4057 6.941
Li 21.5914 21.5914 35.3314 6.941
Li 21.5914 25.5171 0 6.941
Li 21.5914 25.5171 3.92571 6.941
Li 21.5914 25.5171 7.85142 6.941
Li 21.5914 25.5171 11.7771 6.941
Li 21.5914 25.5171 15.7028 6.941
Li 21.5914 25.5171 19.6286 6.941
Li 21.5914 25.5171 23.5543 6.941
Li 21.5914 25.5171 27.48 6.941
Li 21.5914 25.5171 31.4057 6.941
Li 21.5914 25.5171 35.3314 6.941
Li 21.5914 29.4428 0 6.941
Li 21.5914 29.4428 3.92571 6.941
Li 21.5914 29.4428 7.85142 6.941
Li 21.5914 29.4428 11.7771 6.941
Li 21.5914 29.4428 15.7028 6.941
Li 21.5914 29.4428 19.6286 6.941
Li 21.5914 29.4428 23.5543 6.941
Li 21.5914 29.4428 27.48 6.941
Li 21.5914 29.4428 31.4057 6.941
Li 21.5914 29.4428 35.3314 6.941
Li 21.5914 33.3685 0 6.941
Li 21.5914 33.3685 3.92571 6.941
Li 21.5914 33.3685 7.85142 6.941
Li 21.5914 33.3685 11.7771 6.941
Li 21.5914 33.3685 15.7028 6.941
Li 21.5914 33.3685 19.6286 6.941
Li 21.5914 33.3685 23.5543 6.941
Li 21.5914 33.3685 27.48 6.941
Li 21.5914 33.3685 31.4057 6.941
Li 21.5914 33.3685 35.3314 6.941
Li 21.5914 37.2943 0 6.941
Li 21.5914 37.2943 3.92571 6.941
Li 21.5914 37.2943 7.85142 6.941
Li 21.5914 37.2943 11.7771 6.941
Li 21.5914 37.2943 15.7028 6.941
Li 21.5914 37.2943 19.6286 6.941
Li 21.5914 37.2943 23.5543 6.941
Li 21.5914 37.2943 27.48 6.941
Li 21.5914 37.2943 31.4057 6.941
Li 21.5914 37.2943 35.3314 6.941
Li 25.5171 1.96286 0 6.941
Li 25.5171 1.96286 3.92571 6.941
Li 25.5171 1.96286 7.85142 6.941
Li 25.5171 1.96286 11.7771 6.941
Li 25.5171 1.96286 15.7028 6.941
Li 25.5171 1.96286 19.6286 6.941
Li 25.5171 1.96286 23.5543 6.941
Li 25.5171 1.96286 27.48 6.941
Li 25.5171 1.96286 31.4057 6.941
Li 25.5171 1.96286 35.3314 6.941
Li 25.5171 5.88857 0 6.941
Li 25.5171 5.88857 3.92571 6.941
Li 25.5171 5.88857 7.85142 6.941
Li 25.5171 5.88857 11.7771 6.941
Li 25.5171 5.88857 15.7028 6.941
Li 25.5171 5.88857 19.6286 6.941
Li 25.5171 5.88857 23.5543 6.941
Li 25.5171 5.88857 27.48 6.941
Li 25.5171 5.88857 31.4057 6.941
Li 25.5171 5.88857 35.3314 6.941
Li 25.5171 9.81428 0 6.941
Li 25.5171 9.81428 3.92571 6.941
Li 25.5171 9.81428 7.85142 6.941
Li 25.5171 9.81428 11.7771 6.941
Li 25.5171 9.81428 15.7028 6.941
Li 25.5171 9.81428 19.6286 6.941
Li 25.5171 9.81428 23.5543 6.941
Li 25.5171 9.81428 27.48 6.941
Li 25.5171 9.81428 31.4057 6.941
Li 25.5171 9.81428 35.3314 6.941
Li 25.5171 13.74 0 6.941
Li 25.5171 13.74 3.92571 6.941
Li 25.5171 13.74 7.85142 6.941
Li 25.5171 13.74 11.7771 6.941
Li 25.5171 13.74 15.7028 6.941
Li 25.5171 13.74 19.6286 6.941
Li 25.5171 13.74 23.5543 6.941
Li 25.5171 13.74 27.48 6.941
Li 25.5171 13.74 31.4057 6.941
Li 25.5171 13.74 35.3314 6.941
Li 25.5171 17.6657 0 6.941
Li 25.5171 17.6657 3.92571 6.941
Li 25.5171 17.6657 7.85142 6.941
Li 25.5171 17.6657 11.7771 6.941
Li 25.5171 17.6657 15.7028 6.941
Li 25.5171 17.6657 19.6286 6.941
Li 25.5171 17.6657 23.5543 6.941
Li 25.5171 17.6657 27.48 6.941
Li 25.5171 17.6657 31.4057 6.941
Li 25.5171 17.6657 35.3314 6.941
Li 25.5171 21.5914 0 6.941
Li 25.5171 21.5914 3.92571 6.941
Li 25.5171 21.5914 7.85142 6.941
Li 25.5171 21.5914 11.7771 6.941
Li 25.5171 21.5914 15.7028 6.941
Li 25.5171 21.5914 19.6286 6.941
Li 25.5171 21.5914 23.5543 6.941
Li 25.5171 21.5914 27.48 6.941
Li 25.5171 21.5914 31.4057 6.941
Li 25.5171 21.5914 35.3314 6.941
Li 25.5171 25.5171 0 6.941
Li 25.5171 25.5171 3.92571 6.941
Li 25.5171 25.5171 7.85142 6.941
Li 25.5171 25.5171 11.7771 6.941
Li 25.5171 25.5171 15.7028 6.941
Li 25.5171 25.5171 19.6286 6.941
Li 25.5171 25.5171 23.5543 6.941
Li 25.5171 25.5171 27.48 6.941
Li 25.5171 25.5171 31.4057 6.941
Li 25.5171 25.5171 35.3314 6.941
Li 25.5171 29.4428 0 6.941
Li 25.5171 29.4428 3.92571 6.941
Li 25.5171 29.4428 7.85142 6.941
Li 25.5171 29.4428 11.7771 6.941
Li 25.5171 29.4428 15.7028 6.941
Li 25.5171 29.4428 19.6286 6.941
Li 25.5171 29.4428 23.5543 6.941
Li 25.5171 29.4428 27.48 6.941
Li 25.5171 29.4428 31.4057 6.941
Li 25.5171 29.4428 35.3314 6.941
Li 25.5171 33.3685 0 6.941
Li 25.5171 33.3685 3.92571 6.941
Li 25.5171 33.3685 7.85142 6.941
Li 25.5171 33.3685 11.7771 6.941
Li 25.5171 33.3685 15.7028 6.941
Li 25.5171 33.3685 19.6286 6.941
Li 25.5171 33.3685 23.5543 6.941
Li 25.5171 33.3685 27.48 6.941
Li 25.5171 33.3685 31.4057 6.941
Li 25.5171 33.3685 35.3314 6.941
Li 25.5171 37.2943 0 6.941
Li 25.5171 37.2943 3.92571 6.941
Li 25.5171 37.2943 7.85142 6.941
Li 25.5171 37.2943 11.7771 6.941
Li 25.5171 37.2943 15.7028 6.941
Li 25.5171 37.2943 19.6286 6.941
Li 25.5171 37.2943 23.5543 6.941
Li 25.5171 37.2943 27.48 6.941
Li 25.5171 37.2943 31.4057 6.941
Li 25.5171 37.2943 35.3314 6.941
Li 29.4428 1.96286 0 6.941
Li 29.4428 1.96286 3.92571 6.941
Li 29.4428 1.96286 7.85142 6.941
Li 29.4428 1.96286 11.7771 6.941
Li 29.4428 1.96286 15.7028 6.941
Li 29.4428 1.96286 19.6286 6.941
Li 29.4428 1.96286 23.5543 6.941
Li 29.4428 1.96286 27.48 6.941
Li 29.4428 1.96286 31.4057 6.941
Li 29.4428 1.96286 35.3314 6.941
Li 29.4428 5.88857 0 6.941
Li 29.4428 5.88857 3.92571 6.941
Li 29.4428 5.88857 7.85142 6.941
Li 29.4428 5.88857 11.7771 6.941
Li 29.4428 5.88857 15.7028 6.941
Li 29.4428 5.88857 19.6286 6.941
Li 29.4428 5.88857 23.5543 6.941
Li 29.4428 5.88857 27.48 6.941
Li 29.4428 5.88857 31.4057 6.941
Li 29.4428 5.88857 35.3314 6.941
Li 29.4428 9.81428 0 6.941
Li 29.4428 9.81428 3.92571 6.941
Li 29.4428 9.81428 7.85142 6.941
Li 29.4428 9.81428 11.7771 6.941
Li 29.4428 9.81428 15.7028 6.941
Li 29.4428 9.81428 19.6286 6.941
Li 29.4428 9.81428 23.5543 6.941
Li 29.4428 9.81428 27.48 6.941
Li 29.4428 9.81428 31.4057 6.941
Li 29.4428 9.81428 35.3314 6.941
Li 29.4428 13.74 0 6.941
Li 29.4428 13.74 3.92571 6.941
Li 29.4428 13.74 7.85142 6.941
Li 29.4428 13.74 11.7771 6.941
Li 29.4428 13.74 15.7028 6.941
Li 29.4428 13.74 19.6286 6.941
Li 29.4428 13.74 23.5543 6.941
Li 29.4428 13.74 27.48 6.941
Li 29.4428 13.74 31.4057 6.941
Li 29.4428 13.74 35.3314 6.941
Li 29.4428 17.6657 0 6.941
Li 29.4428 17.6657 3.92571 6.941
Li 29.4428 17.6657 7.85142 6.941
Li 29.4428 17.6657 11.7771 6.941
Li 29.4428 17.6657 15.7028 6.941
Li 29.4428 17.6657 19.6286 6.941
Li 29.4428 17.6657 23.5543 6.941
Li 29.4428 17.6657 27.48 6.941
Li 29.4428 17.6657 31.4057 6.941
Li 29.4428 17.6657 35.3314 6.941
Li 29.4428 21.5914 0 6.941
Li 29.4428 21.5914 3.92571 6.941
Li 29.4428 21.5914 7.85142 6.941
Li 29.4428 21.5914 11.7771 6.941
Li 29.4428 21.5914 15.7028 6.941
Li 29.4428 21.5914 19.6286 6.941
Li 29.4428 21.5914 23.5543 6.941
Li 29.4428 21.5914 27.48 6.941
Li 29.4428 21.5914 31.4057 6.941
Li 29.4428 21.5914 35.3314 6.941
Li 29.4428 25.5171 0 6.941
Li 29.4428 25.5171 3.92571 6.941
Li 29.4428 25.5171 7.85142 6.941
Li 29.4428 25.5171 11.7771 6.941
Li 29.4428 25.5171 15.7028 6.941
Li 29.4428 25.5171 19.6286 6.941
Li 29.4428 25.5171 23.5543 6.941
Li 29.4428 25.5171 27.48 6.941
Li 29.4428 25.5171 31.4057 6.941
Li 29.4428 25.5171 35.3314 6.941
Li 29.4428 29.4428 0 6.941
Li 29.4428 29.4428 3.92571 6.941
Li 29.4428 29.4428 7.85142 6.941
Li 29.4428 29.4428 11.7771 6.941
Li 29.4428 29.4428 15.7028 6.941
Li 29.4428 29.4428 19.6286 6.941
Li 29.4428 29.4428 23.5543 6.941
Li 29.4428 29.4428 27.48 6.941
Li 29.4428 29.4428 31.4057 6.941
Li 29.4428 29.4428 35.3314 6.941
Li 29.4428 33.3685 0 6.941
Li 29.4428 33.3685 3.92571 6.941
Li 29.4428 33.3685 7.85142 6.941
Li 29.4428 33.3685 11.7771 6.941
Li 29.4428 33.3685 15.7028 6.941
Li 29.4428 33.3685 19.6286 6.941
Li 29.4428 33.3685 23.5543 6.941
Li 29.4428 33.3685 27.48 6.941
Li 29.4428 33.3685 31.4057 6.941
Li 29.4428 33.3685 35.3314 6.941
Li 29.4428 37.2943 0 6.941
Li 29.4428 37.2943 3.92571 6.941
Li 29.4428 37.2943 7.85142 6.941
Li 29.4428 37.2943 11.7771 6.941
Li 29.4428 37.2943 15.7028 6.941
Li 29.4428 37.2943 19.6286 6.941
Li 29.4428 37.2943 23.5543 6.941
Li 29.4428 37.2943 27.48 6.941
Li 29.4428 37.2943 31.4057 6.941
Li 29.4428 37.2943 35.3314 6.941
Li 33.3685 1.96286 0 6.941
Li 33.3685 1.96286 3.92571 6.941
Li 33.3685 1.96286 7.85142 6.941
Li 33.3685 1.96286 11.7771 6.941
Li 33.3685 1.96286 15.7028 6.941
Li 33.3685 1.96286 19.6286 6.941
Li 33.3685 1.96286 23.5543 6.941
Li 33.3685 1.96286 27.48 6.941
Li 33.3685 1.96286 31.4057 6.941
Li 33.3685 1.96286 35.3314 6.941
Li 33.3685 5.88857 0 6.941
Li 33.3685 5.88857 3.92571 6.941
Li 33.3685 5.88857 7.85142 6.941
Li 33.3685 5.88857 11.7771 6.941
Li 33.3685 5.88857 15.7028 6.941
Li 33.3685 5.88857 19.6286 6.941
Li 33.3685 5.88857 23.5543 6.941
Li 33.3685 5.88857 27.48 6.941
Li 33.3685 5.88857 31.4057 6.941
Li 33.3685 5.88857 35.3314 6.941
Li 33.3685 9.81428 0 6.941
Li 33.3685 9.81428 3.92571 6.941
Li 33.3685 9.81428 7.85142 6.941
Li 33.3685 9.81428 11.7771 6.941
Li 33.3685 9.81428 15.7028 6.941
Li 33.3685 9.81428 19.6286 6.941
Li 33.3685 9.81428 23.5543 6.941
Li 33.3685 9.81428 27.48 6.941
Li 33.3685 9.81428 31.4057 6.941
Li 33.3685 9.81428 35.3314 6.941
Li 33.3685 13.74 0 6.941
Li 33.3685 13.74 3.92571 6.941
Li 33.3685 13.74 7.85142 6.941
Li 33.3685 13.74 11.7771 6.941
Li 33.3685 13.74 15.7028 6.941
Li 33.3685 13.74 19.6286 6.941
Li 33.3685 13.74 23.5543 6.941
Li 33.3685 13.74 27.48 6.941
Li 33.3685 13.74 31.4057 6.941
Li 33.3685 13.74 35.3314 6.941
Li 33.3685 17.6657 0 6.941
Li 33.3685 17.6657 3.92571 6.941
Li 33.3685 17.6657 7.85142 6.941
Li 33.3685 17.6657 11.7771 6.941
Li 33.3685 17.6657 15.7028 6.941
Li 33.3685 17.6657 19.6286 6.941
Li 33.3685 17.6657 23.5543 6.941
Li 33.3685 17.6657 27.48 6.941
Li 33.3685 17.6657 31.4057 6.941
Li 33.3685 17.6657 35.3314 6.941
Li 33.3685 21.5914 0 6.941
Li 33.3685 21.5914 3.92571 6.941
Li 33.3685 21.5914 7.85142 6.941
Li 33.3685 21.5914 11.7771 6.941
Li 33.3685 21.5914 15.7028 6.941
Li 33.3685 21.5914 19.6286 6.941
Li 33.3685 21.5914 23.5543 6.941
Li 33.3685 21.5914 27.48 6.941
Li 33.3685 21.5914 31.4057 6.941
Li 33.3685 21.5914 35.3314 6.941
Li 33.3685 25.5171 0 6.941
Li 33.3685 25.5171 3.92571 6.941
Li 33.3685 25.5171 7.85142 6.941
Li 33.3685 25.5171 11.7771 6.941
Li 33.3685 25.5171 15.7028 6.941
Li 33.3685 25.5171 19.6286 6.941
Li 33.3685 25.5171 23.5543 6.941
Li 33.3685 25.5171 27.48 6.941
Li 33.3685 25.5171 31.4057 6.941
Li 33.3685 25.5171 35.3314 6.941
Li 33.3685 29.4428 0 6.941
Li 33.3685 29.4428 3.92571 6.941
Li 33.3685 29.4428 7.85142 6.941
Li 33.3685 29.4428 11.7771 6.941
Li 33.3685 29.4428 15.7028 6.941
Li 33.3685 29.4428 19.6286 6.941
Li 33.3685 29.4428 23.5543 6.941
Li 33.3685 29.4428 27.48 6.941
Li 33.3685 29.4428 31.4057 6.941
Li 33.3685 29.4428 35.3314 6.941
Li 33.3685 33.3685 0 6.941
Li 33.3685 33.3685 3.92571 6.941
Li 33.3685 33.3685 7.85142 6.941
Li 33.3685 33.3685 11.7771 6.941
Li 33.3685 33.3685 15.7028 6.941
Li 33.3685 33.3685 19.6286 6.941
Li 33.3685 33.3685 23.5543 6.941
Li 33.3685 33.3685 27.48 6.941
Li 33.3685 33.3685 31.4057 6.941
Li 33.3685 33.3685 35.3314 6.941
Li 33.3685 37.2943 0 6.941
Li 33.3685 37.2943 3.92571 6.941
Li 33.3685 37.2943 7.85142 6.941
Li 33.3685 37.2943 11.7771 6.941
Li 33.3685 37.2943 15.7028 6.941
Li 33.3685 37.2943 19.6286 6.941
Li 33.3685 37.2943 23.5543 6.941
Li 33.3685 37.2943 27.48 6.941
Li 33.3685 37.2943 31.4057 6.941
Li 33.3685 37.2943 35.3314 6.941
Li 37.2943 1.96286 0 6.941
Li 37.2943 1.96286 3.92571 6.941
Li 37.2943 1.96286 7.85142 6.941
Li 37.2943 1.96286 11.7771 6.941
Li 37.2943 1.96286 15.7028 6.941
Li 37.2943 1.96286 19.6286 6.941
Li 37.2943 1.96286 23.5543 6.941
Li 37.2943 1.96286 27.48 6.941
Li 37.2943 1.96286 31.4057 6.941
Li 37.2943 1.96286 35.3314 6.941
Li 37.2943 5.88857 0 6.941
Li 37.2943 5.88857 3.92571 6.941
Li 37.2943 5.88857 7.85142 6.941
Li 37.2943 5.88857 11.7771 6.941
Li 37.2943 5.88857 15.7028 6.941
Li 37.2943 5.88857 19.6286 6.941
Li 37.2943 5.88857 23.5543 6.941
Li 37.2943 5.88857 27.48 6.941
Li 37.2943 5.88857 31.4057 6.941
Li 37.2943 5.88857 35.3314 6.941
Li 37.2943 9.81428 0 6.941
Li 37.2943 9.81428 3.92571 6.941
Li 37.2943 9.81428 7.85142 6.941
Li 37.2943 9.81428 11.7771 6.941
Li 37.2943 9.81428 15.7028 6.941
Li 37.2943 9.81428 19.6286 6.941
Li 37.2943 9.81428 23.5543 6.941
Li 37.2943 9.81428 27.48 6.941
Li 37.2943 9.81428 31.4057 6.941
Li 37.2943 9.81428 35.3314 6.941
Li 37.2943 13.74 0 6.941
Li 37.2943 13.74 3.92571 6.941
Li 37.2943 13.74 7.85142 6.941
Li 37.2943 13.74 11.7771 6.941
Li 37.2943 13.74 15.7028 6.941
Li 37.2943 13.74 19.6286 6.941
Li 37.2943 13.74 23.5543 6.941
Li 37.2943 13.74 27.48 6.941
Li 37.2943 13.74 31.4057 6.941
Li 37.2943 13.74 35.3314 6.941
Li 37.2943 17.6657 0 6.941
Li 37.2943 17.6657 3.92571 6.941
Li 37.2943 17.6657 7.85142 6.941
Li 37.2943 17.6657 11.7771 6.941
Li 37.2943 17.6657 15.7028 6.941
Li 37.2943 17.6657 19.6286 6.941
Li 37.2943 17.6657 23.5543 6.941
Li 37.2943 17.6657 27.48 6.941
Li 37.2943 17.6657 31.4057 6.941
Li 37.2943 17.6657 35.3314 6.941
Li 37.2943 21.5914 0 6.941
Li 37.2943 21.5914 3.92571 6.941
Li 37.2943 21.5914 7.85142 6.941
Li 37.2943 21.5914 11.7771 6.941
Li 37.2943 21.5914 15.7028 6.941
Li 37.2943 21.5914 19.6286 6.941
Li 37.2943 21.5914 23.5543 6.941
Li 37.2943 21.5914 27.48 6.941
Li 37.2943 21.5914 31.4057 6.941
Li 37.2943 21.5914 35.3314 6.941
Li 37.2943 25.5171 0 6.941
Li 37.2943 25.5171 3.92571 6.941
Li 37.2943 25.5171 7.85142 6.941
Li 37.2943 25.5171 11.7771 6.941
Li 37.2943 25.5171 15.7028 6.941
Li 37.2943 25.5171 19.6286 6.941
Li 37.2943 25.5171 23.5543 6.941
Li 37.2943 25.5171 27.48 6.941
Li 37.2943 25.5171 31.4057 6.941
Li 37.2943 25.5171 35.3314 6.941
Li 37.2943 29.4428 0 6.941
Li 37.2943 29.4428 3.92571 6.941
Li 37.2943 29.4428 7.85142 6.941
Li 37.2943 29.4428 11.7771 6.941
Li 37.2943 29.4428 15.7028 6.941
Li 37.2943 29.4428 19.6286 6.941
Li 37.2943 29.4428 23.5543 6.941
Li 37.2943 29.4428 27.48 6.941
Li 37.2943 29.4428 31.4057 6.941
Li 37.2943 29.4428 35.3314 6.941
Li 37.2943 33.3685 0 6.941
Li 37.2943 33.3685 3.92571 6.941
Li 37.2943 33.3685 7.85142 6.941
Li 37.2943 33.3685 11.7771 6.941
Li 37.2943 33.3685 15.7028 6.941
Li 37.2943 33.3685 19.6286 6.941
Li 37.2943 33.3685 23.5543 6.941
Li 37.2943 33.3685 27.48 6.941
Li 37.2943 33.3685 31.4057 6.941
Li 37.2943 33.3685 35.3314 6.941
Li 37.2943 37.2943 0 6.941
Li 37.2943 37.2943 3.92571 6.941
Li 37.2943 37.2943 7.85142 6.941
Li 37.2943 37.2943 11.7771 6.941
Li 37.2943 37.2943 15.7028 6.941
Li 37.2943 37.2943 19.6286 6.941
Li 37.2943 37.2943 23.5543 6.941
Li 37.2943 37.2943 27.48 6.941
Li 37.2943 37.2943 31.4057 6.941
Li 37.2943 37.2943 35.3314 6.941
D 1.96286 0 0 2.0141
D 1.96286 0 3.92571 2.0141
D 1.96286 0 7.85142 2.0141
D 1.96286 0 11.7771 2.0141
D 1.96286 0 15.7028 2.0141
D 1.96286 0 19.6286 2.0141
D 1.96286 0 23.5543 2.0141
D 1.96286 0 27.48 2.0141
D 1.96286 0 31.4057 2.0141
D 1.96286 0 35.3314 2.0141
D 1.96286 3.92571 0 2.0141
D 1.96286 3.92571 3.92571 2.0141
D 1.96286 3.92571 7.85142 2.0141
D 1.96286 3.92571 11.7771 2.0141
D 1.96286 3.92571 15.7028 2.0141
D 1.96286 3.92571 19.6286 2.0141
D 1.96286 3.92571 23.5543 2.0141
D 1.96286 3.92571 27.48 2.0141
D 1.96286 3.92571 31.4057 2.0141
D 1.96286 3.92571 35.3314 2.0141
D 1.96286 7.85142 0 2.0141
D 1.96286 7.85142 3.92571 2.0141
D 1.96286 7.85142 7.85142 2.0141
D 1.96286 7.85142 11.7771 2.0141
D 1.96286 7.85142 15.7028 2.0141
D 1.96286 7.85142 19.6286 2.0141
D 1.96286 7.85142 23.5543 2.0141
D 1.96286 7.85142 27.48 2.0141
D 1.96286 7.85142 31.4057 2.0141
D 1.96286 7.85142 35.3314 2.0141
D 1.96286 11.7771 0 2.0141
D 1.96286 11.7771 3.92571 2.0141
D 1.96286 11.7771 7.85142 2.0141
D 1.96286 11.7771 11.7771 2.0141
D 1.96286 11.7771 15.7028 2.0141
D 1.96286 11.7771 19.6286 2.0141
D 1.96286 11.7771 23.5543 2.0141
D 1.96286 11.7771 27.48 2.0141
D 1.96286 11.7771 31.4057 2.0141
D 1.96286 11.7771 35.3314 2.0141
D 1.96286 15.7028 0 2.0141
D 1.96286 15.7028 3.92571 2.0141
D 1.96286 15.7028 7.85142 2.0141
D 1.96286 15.7028 11.7771 2.0141
D 1.96286 15.7028 15.7028 2.0141
D 1.96286 15.7028 19.6286 2.0141
D 1.96286 15.7028 23.5543 2.0141
D 1.96286 15.7028 27.48 2.0141
D 1.96286 15.7028 31.4057 2.0141
D 1.96286 15.7028 35.3314 2.0141
D 1.96286 19.6286 0 2.0141
D 1.96286 19.6286 3.92571 2.0141
D 1.96286 19.6286 7.85142 2.0141
D 1.96286 19.6286 11.7771 2.0141
D 1.96286 19.6286 15.7028 2.0141
D 1.96286 19.6286 19.6286 2.0141
D 1.96286 19.6286 23.5543 2.0141
D 1.96286 19.6286 27.48 2.0141
D 1.96286 19.6286 31.4057 2.0141
D 1.96286 19.6286 35.3314 2.0141
D 1.96286 23.5543 0 2.0141
D 1.96286 23.5543 3.92571 2.0141
D 1.96286 23.5543 7.85142 2.0141
D 1.96286 23.5543 11.7771 2.0141
D 1.96286 23.5543 15.7028 2.0141
D 1.96286 23.5543 19.6286 2.0141
D 1.96286 23.5543 23.5543 2.0141
D 1.96286 23.5543 27.48 2.0141
D 1.96286 23.5543 31.4057 2.0141
D 1.96286 23.5543 35.3314 2.0141
D 1.96286 27.48 0 2.0141
D 1.96286 27.48 3.92571 2.0141
D 1.96286 27.48 7.85142 2.0141
D 1.96286 27.48 11.7771 2.0141
D 1.96286 27.48 15.7028 2.0141
D 1.96286 27.48 19.6286 2.0141
D 1.96286 27.48 23.5543 2.0141
D 1.96286 27.48 27.48 2.0141
D 1.96286 27.48 31.4057 2.0141
D 1.96286 27.48 35.3314 2.0141
D 1.96286 31.4057 0 2.0141
D 1.96286 31.4057 3.92571 2.0141
D 1.96286 31.4057 7.85142 2.0141
D 1.96286 31.4057 11.7771 2.0141
D 1.96286 31.4057 15.7028 2.0141
D 1.96286 31.4057 19.6286 2.0141
D 1.96286 31.4057 23.5543 2.0141
D 1.96286 31.4057 27.48 2.0141
D 1.96286 31.4057 31.4057 2.0141
D 1.96286 31.4057 35.3314 2.0141
D 1.96286 35.3314 0 2.0141
D 1.96286 35.3314 3.92571 2.0141
D 1.96286 35.3314 7.85142 2.0141
D 1.96286 35.3314 11.7771 2.0141
D 1.96286 35.3314 15.7028 2.0141
D 1.96286 35.3314 19.6286 2.0141
D 1.96286 35.3314 23.5543 2.0141
D 1.96286 35.3314 27.48 2.0141
D 1.96286 35.3314 31.4057 2.0141
D 1.96286 35.3314 35.3314 2.0141
D 5.88857 0 0 2.0141
D 5.88857 0 3.92571 2.0141
D 5.88857 0 7.85142 2.0141
D 5.88857 0 11.7771 2.0141
D 5.88857 0 15.7028 2.0141
D 5.88857 0 19.6286 2.0141
D 5.88857 0 23.5543 2.0141
D 5.88857 0 27.48 2.0141
D 5.88857 0 31.4057 2.0141
D 5.88857 0 35.3314 2.0141
D 5.88857 3.92571 0 2.0141
D 5.88857 3.92571 3.92571 2.0141
D 5.88857 3.92571 7.85142 2.0141
D 5.88857 3.92571 11.7771 2.0141
D 5.88857 3.92571 15.7028 2.0141
D 5.88857 3.92571 19.6286 2.0141
D 5.88857 3.92571 23.5543 2.0141
D 5.88857 3.92571 27.48 2.0141
D 5.88857 3.92571 31.4057 2.0141
D 5.88857 3.92571 35.3314 2.0141
D 5.88857 7.85142 0 2.0141
D 5.88857 7.85142 3.92571 2.0141
D 5.88857 7.85142 7.85142 2.0141
D 5.88857 7.85142 11.7771 2.0141
D 5.88857 7.85142 15.7028 2.0141
D 5.88857 7.85142 19.6286 2.0141
D 5.88857 7.85142 23.5543 2.0141
D 5.88857 7.85142 27.48 2.0141
D 5.88857 7.85142 31.4057 2.0141
D 5.88857 7.85142 35.3314 2.0141
D 5.88857 11.7771 0 2.0141
D 5.88857 11.7771 3.92571 2.0141
D 5.88857 11.7771 7.85142 2.0141
D 5.88857 11.7771 11.7771 2.0141
D 5.88857 11.7771 15.7028 2.0141
D 5.88857 11.7771 19.6286 2.0141
D 5.88857 11.7771 23.5543 2.0141
D 5.88857 11.7771 27.48 2.0141
D 5.88857 11.7771 31.4057 2.0141
D 5.88857 11.7771 35.3314 2.0141
D 5.88857 15.7028 0 2.0141
D 5.88857 15.7028 3.92571 2.0141
D 5.88857 15.7028 7.85142 2.0141
D 5.88857 15.7028 11.7771 2.0141
D 5.88857 15.7028 15.7028 2.0141
D 5.88857 15.7028 19.6286 2.0141
D 5.88857 15.7028 23.5543 2.0141
D 5.88857 15.7028 27.48 2.0141
D 5.88857 15.7028 31.4057 2.0141
D 5.88857 15.7028 35.3314 2.0141
D 5.88857 19.6286 0 2.0141
D 5.88857 19.6286 3.92571 2.0141
D 5.88857 19.6286 7.85142 2.0141
D 5.88857 19.6286 11.7771 2.0141
D 5.88857 19.6286 15.7028 2.0141
D 5.88857 19.6286 19.6286 2.0141
D 5.88857 19.6286 23.5543 2.0141
D 5.88857 19.6286 27.48 2.0141
D 5.88857 19.6286 31.4057 2.0141
D 5.88857 19.6286 35.3314 2.0141
D 5.88857 23.5543 0 2.0141
D 5.88857 23.5543 3.92571 2.0141
D 5.88857 23.5543 7.85142 2.0141
D 5.88857 23.5543 11.7771 2.0141
D 5.88857 23.5543 15.7028 2.0141
D 5.88857 23.5543 19.6286 2.0141
D 5.88857 23.5543 23.5543 2.0141
D 5.88857 23.5543 27.48 2.0141
D 5.88857 23.5543 31.4057 2.0141
D 5.88857 23.5543 35.3314 2.0141
D 5.88857 27.48 0 2.0141
D 5.88857 27.48 3.92571 2.0141
D 5.88857 27.48 7.85142 2.0141
D 5.88857 27.48 11.7771 2.0141
D 5.88857 27.48 15.7028 2.0141
D 5.88857 27.48 19.6286 2.0141
D 5.88857 27.48 23.5543 2.0141
D 5.88857 27.48 27.48 2.0141
D 5.88857 27.48 31.4057 2.0141
D 5.88857 27.48 35.3314 2.0141
D 5.88857 31.4057 0 2.0141
D 5.88857 31.4057 3.92571 2.0141
D 5.88857 31.4057 7.85142 2.0141
D 5.88857 31.4057 11.7771 2.0141
D 5.88857 31.4057 15.7028 2.0141
D 5.88857 31.4057 19.6286 2.0141
D 5.88857 31.4057 23.5543 2.0141
D 5.88857 31.4057 27.48 2.0141
D 5.88857 31.4057 31.4057 2.0141
D 5.88857 31.4057 35.3314 2.0141
D 5.88857 35.3314 0 2.0141
D 5.88857 35.3314 3.92571 2.0141
D 5.88857 35.3314 7.85142 2.0141
D 5.88857 35.3314 11.7771 2.0141
D 5.88857 35.3314 15.7028 2.0141
D 5.88857 35.3314 19.6286 2.0141
D 5.88857 35.3314 23.5543 2.0141
D 5.88857 35.3314 27.48 2.0141
D 5.88857 35.3314 31.4057 2.0141
D 5.88857 35.3314 35.3314 2.0141
D 9.81428 0 0 2.0141
D 9.81428 0 3.92571 2.0141
D 9.81428 0 7.85142 2.0141
D 9.81428 0 11.7771 2.0141
D 9.81428 0 15.7028 2.0141
D 9.81428 0 19.6286 2.0141
D 9.81428 0 23.5543 2.0141
D 9.81428 0 27.48 2.0141
D 9.81428 0 31.4057 2.0141
D 9.81428 0 35.3314 2.0141
D 9.81428 3.92571 0 2.0141
D 9.81428 3.92571 3.92571 2.0141
D 9.81428 3.92571 7.85142 2.0141
D 9.81428 3.92571 11.7771 2.0141
D 9.81428 3.92571 15.7028 2.0141
D 9.81428 3.92571 19.6286 2.0141
D 9.81428 3.92571 23.5543 2.0141
D 9.81428 3.92571 27.48 2.0141
D 9.81428 3.92571 31.4057 2.0141
D 9.81428 3.92571 35.3314 2.0141
D 9.81428 7.85142 0 2.0141
D 9.81428 7.85142 3.92571 2.0141
D 9.81428 7.85142 7.85142 2.0141
D 9.81428 7.85142 11.7771 2.0141
D 9.81428 7.85142 15.7028 2.0141
D 9.81428 7.85142 19.6286 2.0141
D 9.81428 7.85142 23.5543 2.0141
D 9.81428 7.85142 27.48 2.0141
D 9.81428 7.85142 31.4057 2.0141
D 9.81428 7.85142 35.3314 2.0141
D 9.81428 11.7771 0 2.0141
D 9.81428 11.7771 3.92571 2.0141
D 9.81428 11.7771 7.85142 2.0141
D 9.81428 11.7771 11.7771 2.0141
D 9.81428 11.7771 15.7028 2.0141
D 9.81428 11.7771 19.6286 2.0141
D 9.81428 11.7771 23.5543 2.0141
D 9.81428 11.7771 27.48 2.0141
D 9.81428 11.7771 31.4057 2.0141
D 9.81428 11.7771 35.3314 2.0141
D 9.81428 15.7028 0 2.0141
D 9.81428 15.7028 3.92571 2.0141
D 9.81428 15.7028 7.85142 2.0141
D 9.81428 15.7028 11.7771 2.0141
D 9.81428 15.7028 15.7028 2.0141
D 9.81428 15.7028 19.6286 2.0141
D 9.81428 15.7028 23.5543 2.0141
D 9.81428 15.7028 27.48 2.0141
D 9.81428 15.7028 31.4057 2.0141
D 9.81428 15.7028 35.3314 2.0141
D 9.81428 19.6286 0 2.0141
D 9.81428 19.6286 3.92571 2.0141
D 9.81428 19.6286 7.85142 2.0141
D 9.81428 19.6286 11.7771 2.0141
D 9.81428 19.6286 15.7028 2.0141
D 9.81428 19.6286 19.6286 2.0141
D 9.81428 19.6286 23.5543 2.0141
D 9.81428 19.6286 27.48 2.0141
D 9.81428 19.6286 31.4057 2.0141
D 9.81428 19.6286 35.3314 2.0141
D 9.81428 23.5543 0 2.0141
D 9.81428 23.5543 3.92571 2.0141
D 9.81428 23.5543 7.85142 2.0141
D 9.81428 23.5543 11.7771 2.0141
D 9.81428 23.5543 15.7028 2.0141
D 9.81428 23.5543 19.6286 2.0141
D 9.81428 23.5543 23.5543 2.0141
D 9.81428 23.5543 27.48 2.0141
D 9.81428 23.5543 31.4057 2.0141
D 9.81428 23.5543 35.3314 2.0141
D 9.81428 27.48 0 2.0141
D 9.81428 27.48 3.92571 2.0141
D 9.81428 27.48 7.85142 2.0141
D 9.81428 27.48 11.7771 2.0141
D 9.81428 27.48 15.7028 2.0141
D 9.81428 27.48 19.6286 2.0141
D 9.81428 27.48 23.5543 2.0141
D 9.81428 27.48 27.48 2.0141
D 9.81428 27.48 31.4057 2.0141
D 9.81428 27.48 35.3314 2.0141
D 9.81428 31.4057 0 2.0141
D 9.81428 31.4057 3.92571 2.0141
D 9.81428 31.4057 7.85142 2.0141
D 9.81428 31.4057 11.7771 2.0141
D 9.81428 31.4057 15.7028 2.0141
D 9.81428 31.4057 19.6286 2.0141
D 9.81428 31.4057 23.5543 2.0141
D 9.81428 31.4057 27.48 2.0141
D 9.81428 31.4057 31.4057 2.0141
D 9.81428 31.4057 35.3314 2.0141
D 9.81428 35.3314 0 2.0141
D 9.81428 35.3314 3.92571 2.0141
D 9.81428 35.3314 7.85142 2.0141
D 9.81428 35.3314 11.7771 2.0141
D 9.81428 35.3314 15.7028 2.0141
D 9.81428 35.3314 19.6286 2.0141
D 9.81428 35.3314 23.5543 2.0141
D 9.81428 35.3314 27.48 2.0141
D 9.81428 35.3314 31.4057 2.0141
D 9.81428 35.3314 35.3314 2.0141
D 13.74 0 0 2.0141
D 13.74 0 3.92571 2.0141
D 13.74 0 7.85142 2.0141
D 13.74 0 11.7771 2.0141
D 13.74 0 15.7028 2.0141
D 13.74 0 19.6286 2.0141
D 13.74 0 23.5543 2.0141
D 13.74 0 27.48 2.0141
D 13.74 0 31.4057 2.0141
D 13.74 0 35.3314 2.0141
D 13.74 3.92571 0 2.0141
D 13.74 3.92571 3.92571 2.0141
D 13.74 3.92571 7.85142 2.0141
D 13.74 3.92571 11.7771 2.0141
D 13.74 3.92571 15.7028 2.0141
D 13.74 3.92571 19.6286 2.0141
D 13.74 3.92571 23.5543 2.0141
D 13.74 3.92571 27.48 2.0141
D 13.74 3.92571 31.4057 2.0141
D 13.74 3.92571 35.3314 2.0141
D 13.74 7.85142 0 2.0141
D 13.74 7.85142 3.92571 2.0141
D 13.74 7.85142 7.85142 2.0141
D 13.74 7.85142 11.7771 2.0141
D 13.74 7.85142 15.7028 2.0141
D 13.74 7.85142 19.6286 2.0141
D 13.74 7.85142 23.5543 2.0141
D 13.74 7.85142 27.48 2.0141
D 13.74 7.85142 31.4057 2.0141
D 13.74 7.85142 35.3314 2.0141
D 13.74 11.7771 0 2.0141
D 13.74 11.7771 3.92571 2.0141
D 13.74 11.7771 7.85142 2.0141
D 13.74 11.7771 11.7771 2.0141
D 13.74 11.7771 15.7028 2.0141
D 13.74 11.7771 19.6286 2.0141
D 13.74 11.7771 23.5543 2.0141
D 13.74 11.7771 27.48 2.0141
D 13.74 11.7771 31.4057 2.0141
D 13.74 11.7771 35.3314 2.0141
D 13.74 15.7028 0 2.0141
D 13.74 15.7028 3.92571 2.0141
D 13.74 15.7028 7.85142 2.0141
D 13.74 15.7028 11.7771 2.0141
D 13.74 15.7028 15.7028 2.0141
D 13.74 15.7028 19.6286 2.0141
D 13.74 15.7028 23.5543 2.0141
D 13.74 15.7028 27.48 2.0141
D 13.74 15.7028 31.4057 2.0141
D 13.74 15.7028 35.3314 2.0141
D 13.74 19.6286 0 2.0141
D 13.74 19.6286 3.92571 2.0141
D 13.74 19.6286 7.85142 2.0141
D 13.74 19.6286 11.7771 2.0141
D 13.74 19.6286 15.7028 2.0141
D 13.74 19.6286 19.6286 2.0141
D 13.74 19.6286 23.5543 2.0141
D 13.74 19.6286 27.48 2.0141
D 13.74 19.6286 31.4057 2.0141
D 13.74 19.6286 35.3314 2.0141
D 13.74 23.5543 0 2.0141
D 13.74 23.5543 3.92571 2.0141
D 13.74 23.5543 7.85142 2.0141
D 13.74 23.5543 11.7771 2.0141
D 13.74 23.5543 15.7028 2.0141
D 13.74 23.5543 19.6286 2.0141
D 13.74 23.5543 23.5543 2.0141
D 13.74 23.5543 27.48 2.0141
D 13.74 23.5543 31.4057 2.0141
D 13.74 23.5543 35.3314 2.0141
D 13.74 27.48 0 2.0141
D 13.74 27.48 3.92571 2.0141
D 13.74 27.48 7.85142 2.0141
D 13.74 27.48 11.7771 2.0141
D 13.74 27.48 15.7028 2.0141
D 13.74 27.48 19.6286 2.0141
D 13.74 27.48 23.5543 2.0141
D 13.74 27.48 27.48 2.0141
D 13.74 27.48 31.4057 2.0141
D 13.74 27.48 35.3314 2.0141
D 13.74 31.4057 0 2.0141
D 13.74 31.4057 3.92571 2.0141
D 13.74 31.4057 7.85142 2.0141
D 13.74 31.4057 11.7771 2.0141
D 13.74 31.4057 15.7028 2.0141
D 13.74 31.4057 19.6286 2.0141
D 13.74 31.4057 23.5543 2.0141
D 13.74 31.4057 27.48 2.0141
D 13.74 31.4057 31.4057 2.0141
D 13.74 31.4057 35.3314 2.0141
D 13.74 35.3314 0 2.0141
D 13.74 35.3314 3.92571 2.0141
D 13.74 35.3314 7.85142 2.0141
D 13.74 35.3314 11.7771 2.0141
D 13.74 35.3314 15.7028 2.0141
D 13.74 35.3314 19.6286 2.0141
D 13.74 35.3314 23.5543 2.0141
D 13.74 35.3314 27.48 2.0141
D 13.74 35.3314 31.4057 2.0141
D 13.74 35.3314 35.3314 2.0141
D 17.6657 0 0 2.0141
D 17.6657 0 3.92571 2.0141
D 17.6657 0 7.85142 2.0141
D 17.6657 0 11.7771 2.0141
D 17.6657 0 15.7028 2.0141
D 17.6657 0 19.6286 2.0141
D 17.6657 0 23.5543 2.0141
D 17.6657 0 27.48 2.0141
D 17.6657 0 31.4057 2.0141
D 17.6657 0 35.3314 2.0141
D 17.6657 3.92571 0 2.0141
D 17.6657 3.92571 3.92571 2.0141
D 17.6657 3.92571 7.85142 2.0141
D 17.6657 3.92571 11.7771 2.0141
D 17.6657 3.92571 15.7028 2.0141
D 17.6657 3.92571 19.6286 2.0141
D 17.6657 3.92571 23.5543 2.0141
D 17.6657 3.92571 27.48 2.0141
D 17.6657 3.92571 31.4057 2.0141
D 17.6657 3.92571 35.3314 2.0141
D 17.6657 7.85142 0 2.0141
D 17.6657 7.85142 3.92571 2.0141
D 17.6657 7.85142 7.85142 2.0141
D 17.6657 7.85142 11.7771 2.0141
D 17.6657 7.85142 15.7028 2.0141
D 17.6657 7.85142 19.6286 2.0141
D 17.6657 7.85142 23.5543 2.0141
D 17.6657 7.85142 27.48 2.0141
D 17.6657 7.85142 31.4057 2.0141
D 17.6657 7.85142 35.3314 2.0141
D 17.6657 11.7771 0 2.0141
D 17.6657 11.7771 3.92571 2.0141
D 17.6657 11.7771 7.85142 2.0141
D 17.6657 11.7771 11.7771 2.0141
D 17.6657 11.7771 15.7028 2.0141
D 17.6657 11.7771 19.6286 2.0141
D 17.6657 11.7771 23.5543 2.0141
D 17.6657 11.7771 27.48 2.0141
D 17.6657 11.7771 31.4057 2.0141
D 17.6657 11.7771 35.3314 2.0141
D 17.6657 15.7028 0 2.0141
D 17.6657 15.7028 3.92571 2.0141
D 17.6657 15.7028 7.85142 2.0141
D 17.6657 15.7028 11.7771 2.0141
D 17.6657 15.7028 15.7028 2.0141
D 17.6657 15.7028 19.6286 2.0141
D 17.6657 15.7028 23.5543 2.0141
D 17.6657 15.7028 27.48 2.0141
D 17.6657 15.7028 31.4057 2.0141
D 17.6657 15.7028 35.3314 2.0141
D 17.6657 19.6286 0 2.0141
D 17.6657 19.6286 3.92571 2.0141
D 17.6657 19.6286 7.85142 2.0141
D 17.6657 19.6286 11.7771 2.0141
D 17.6657 19.6286 15.7028 2.0141
D 17.6657 19.6286 19.6286 2.0141
D 17.6657 19.6286 23.5543 2.0141
D 17.6657 19.6286 27.48 2.0141
D 17.6657 19.6286 31.4057 2.0141
D 17.6657 19.6286 35.3314 2.0141
D 17.6657 23.5543 0 2.0141
D 17.6657 23.5543 3.92571 2.0141
D 17.6657 23.5543 7.85142 2.0141
D 17.6657 23.5543 11.7771 2.0141
D 17.6657 23.5543 15.7028 2.0141
D 17.6657 23.5543 19.6286 2.0141
D 17.6657 23.5543 23.5543 2.0141
D 17.6657 23.5543 27.48 2.0141
D 17.6657 23.5543 31.4057 2.0141
D 17.6657 23.5543 35.3314 2.0141
D 17.6657 27.48 0 2.0141
D 17.6657 27.48 3.92571 2.0141
D 17.6657 27.48 7.85142 2.0141
D 17.6657 27.48 11.7771 2.0141
D 17.6657 27.48 15.7028 2.0141
D 17.6657 27.48 19.6286 2.0141
D 17.6657 27.48 23.5543 2.0141
D 17.6657 27.48 27.48 2.0141
D 17.6657 27.48 31.4057 2.0141
D 17.6657 27.48 35.3314 2.0141
D 17.6657 31.4057 0 2.0141
D 17.6657 31.4057 3.92571 2.0141
D 17.6657 31.4057 7.85142 2.0141
D 17.6657 31.4057 11.7771 2.0141
D 17.6657 31.4057 15.7028 2.0141
D 17.6657 31.4057 19.6286 2.0141
D 17.6657 31.4057 23.5543 2.0141
D 17.6657 31.4057 27.48 2.0141
D 17.6657 31.4057 31.4057 2.0141
D 17.6657 31.4057 35.3314 2.0141
D 17.6657 35.3314 0 2.0141
D 17.6657 35.3314 3.92571 2.0141
D 17.6657 35.3314 7.85142 2.0141
D 17.6657 35.3314 11.7771 2.0141
D 17.6657 35.3314 15.7028 2.0141
D 17.6657 35.3314 19.6286 2.0141
D 17.6657 35.3314 23.5543 2.0141
D 17.6657 35.3314 27.48 2.0141
D 17.6657 35.3314 31.4057 2.0141
D 17.6657 35.3314 35.3314 2.0141
D 21.5914 0 0 2.0141
D 21.5914 0 3.92571 2.0141
D 21.5914 0 7.85142 2.0141
D 21.5914 0 11.7771 2.0141
D 21.5914 0 15.7028 2.0141
D 21.5914 0 19.6286 2.0141
D 21.5914 0 23.5543 2.0141
D 21.5914 0 27.48 2.0141
D 21.5914 0 31.4057 2.0141
D 21.5914 0 35.3314 2.0141
D 21.5914 3.92571 0 2.0141
D 21.5914 3.92571 3.92571 2.0141
D 21.5914 3.92571 7.85142 2.0141
D 21.5914 3.92571 11.7771 2.0141
D 21.5914 3.92571 15.7028 2.0141
D 21.5914 3.92571 19.6286 2.0141
D 21.5914 3.92571 23.5543 2.0141
D 21.5914 3.92571 27.48 2.0141
D 21.5914 3.92571 31.4057 2.0141
D 21.5914 3.92571 35.3314 2.0141
D 21.5914 7.85142 0 2.0141
D 21.5914 7.85142 3.92571 2.0141
D 21.5914 7.85142 7.85142 2.0141
D 21.5914 7.85142 11.7771 2.0141
D 21.5914 7.85142 15.7028 2.0141
D 21.5914 7.85142 19.6286 2.0141
D 21.5914 7.85142 23.5543 2.0141
D 21.5914 7.85142 27.48 2.0141
D 21.5914 7.85142 31.4057 2.0141
D 21.5914 7.85142 35.3314 2.0141
D 21.5914 11.7771 0 2.0141
D 21.5914 11.7771 3.92571 2.0141
D 21.5914 11.7771 7.85142 2.0141
D 21.5914 11.7771 11.7771 2.0141
D 21.5914 11.7771 15.7028 2.0141
D 21.5914 11.7771 19.6286 2.0141
D 21.5914 11.7771 23.5543 2.0141
D 21.5914 11.7771 27.48 2.0141
D 21.5914 11.7771 31.4057 2.0141
D 21.5914 11.7771 35.3314 2.0141
D 21.5914 15.7028 0 2.0141
D 21.5914 15.7028 3.92571 2.0141
D 21.5914 15.7028 7.85142 2.0141
D 21.5914 15.7028 11.7771 2.0141
D 21.5914 15.7028 15.7028 2.0141
D 21.5914 15.7028 19.6286 2.0141
D 21.5914 15.7028 23.5543 2.0141
D 21.5914 15.7028 27.48 2.0141
D 21.5914 15.7028 31.4057 2.0141
D 21.5914 15.7028 35.3314 2.0141
D 21.5914 19.6286 0 2.0141
D 21.5914 19.6286 3.92571 2.0141
D 21.5914 19.6286 7.85142 2.0141
D 21.5914 19.6286 11.7771 2.0141
D 21.5914 19.6286 15.7028 2.0141
D 21.5914 19.6286 19.6286 2.0141
D 21.5914 19.6286 23.5543 2.0141
D 21.5914 19.6286 27.48 2.0141
D 21.5914 19.6286 31.4057 2.0141
D 21.5914 19.6286 35.3314 2.0141
D 21.5914 23.5543 0 2.0141
D 21.5914 23.5543 3.92571 2.0141
D 21.5914 23.5543 7.85142 2.0141
D 21.5914 23.5543 11.7771 2.0141
D 21.5914 23.5543 15.7028 2.0141
D 21.5914 23.5543 19.6286 2.0141
D 21.5914 23.5543 23.5543 2.0141
D 21.5914 23.5543 27.48 2.0141
D 21.5914 23.5543 31.4057 2.0141
D 21.5914 23.5543 35.3314 2.0141
D 21.5914 27.48 0 2.0141
D 21.5914 27.48 3.92571 2.0141
D 21.5914 27.48 7.85142 2.0141
D 21.5914 27.48 11.7771 2.0141
D 21.5914 27.48 15.7028 2.0141
D 21.5914 27.48 19.6286 2.0141
D 21.5914 27.48 23.5543 2.0141
D 21.5914 27.48 27.48 2.0141
D 21.5914 27.48 31.4057 2.0141
D 21.5914 27.48 35.3314 2.0141
D 21.5914 31.4057 0 2.0141
D 21.5914 31.4057 3.92571 2.0141
D 21.5914 31.4057 7.85142 2.0141
D 21.5914 31.4057 11.7771 2.0141
D 21.5914 31.4057 15.7028 2.0141
D 21.5914 31.4057 19.6286 2.0141
D 21.5914 31.4057 23.5543 2.0141
D 21.5914 31.4057 27.48 2.0141
D 21.5914 31.4057 31.4057 2.0141
D 21.5914 31.4057 35.3314 2.0141
D 21.5914 35.3314 0 2.0141
D 21.5914 35.3314 3.92571 2.0141
D 21.5914 35.3314 7.85142 2.0141
D 21.5914 35.3314 11.7771 2.0141
D 21.5914 35.3314 15.7028 2.0141
D 21.5914 35.3314 19.6286 2.0141
D 21.5914 35.3314 23.5543 2.0141
D 21.5914 35.3314 27.48 2.0141
D 21.5914 35.3314 31.4057 2.0141
D 21.5914 35.3314 35.3314 2.0141
D 25.5171 0 0 2.0141
D 25.5171 0 3.92571 2.0141
D 25.5171 0 7.85142 2.0141
D 25.5171 0 11.7771 2.0141
D 25.5171 0 15.7028 2.0141
D 25.5171 0 19.6286 2.0141
D 25.5171 0 23.5543 2.0141
D 25.5171 0 27.48 2.0141
D 25.5171 0 31.4057 2.0141
D 25.5171 0 35.3314 2.0141
D 25.5171 3.92571 0 2.0141
D 25.5171 3.92571 3.92571 2.0141
D 25.5171 3.92571 7.85142 2.0141
D 25.5171 3.92571 11.7771 2.0141
D 25.5171 3.92571 15.7028 2.0141
D 25.5171 3.92571 19.6286 2.0141
D 25.5171 3.92571 23.5543 2.0141
D 25.5171 3.92571 27.48 2.0141
D 25.5171 3.92571 31.4057 2.0141
D 25.5171 3.92571 35.3314 2.0141
D 25.5171 7.85142 0 2.0141
D 25.5171 7.85142 3.92571 2.0141
D 25.5171 7.85142 7.85142 2.0141
D 25.5171 7.85142 11.7771 2.0141
D 25.5171 7.85142 15.7028 2.0141
D 25.5171 7.85142 19.6286 2.0141
D 25.5171 7.85142 23.5543 2.0141
D 25.5171 7.85142 27.48 2.0141
D 25.5171 7.85142 31.4057 2.0141
D 25.5171 7.85142 35.3314 2.0141
D 25.5171 11.7771 0 2.0141
D 25.5171 11.7771 3.92571 2.0141
D 25.5171 11.7771 7.85142 2.0141
D 25.5171 11.7771 11.7771 2.0141
D 25.5171 11.7771 15.7028 2.0141
D 25.5171 11.7771 19.6286 2.0141
D 25.5171 11.7771 23.5543 2.0141
D 25.5171 11.7771 27.48 2.0141
D 25.5171 11.7771 31.4057 2.0141
D 25.5171 11.7771 35.3314 2.0141
D 25.5171 15.7028 0 2.0141
D 25.5171 15.7028 3.92571 2.0141
D 25.5171 15.7028 7.85142 2.0141
D 25.5171 15.7028 11.7771 2.0141
D 25.5171 15.7028 15.7028 2.0141
D 25.5171 15.7028 19.6286 2.0141
D 25.5171 15.7028 23.5543 2.0141
D 25.5171 15.7028 27.48 2.0141
D 25.5171 15.7028 31.4057 2.0141
D 25.5171 15.7028 35.3314 2.0141
D 25.5171 19.6286 0 2.0141
D 25.5171 19.6286 3.92571 2.0141
D 25.5171 19.6286 7.85142 2.0141
D 25.5171 19.6286 11.7771 2.0141
D 25.5171 19.6286 15.7028 2.0141
D 25.5171 19.6286 19.6286 2.0141
D 25.5171 19.6286 23.5543 2.0141
D 25.5171 19.6286 27.48 2.0141
D 25.5171 19.6286 31.4057 2.0141
D 25.5171 19.6286 35.3314 2.0141
D 25.5171 23.5543 0 2.0141
D 25.5171 23.5543 3.92571 2.0141
D 25.5171 23.5543 7.85142 2.0141
D 25.5171 23.5543 11.7771 2.0141
D 25.5171 23.5543 15.7028 2.0141
D 25.5171 23.5543 19.6286 2.0141
D 25.5171 23.5543 23.5543 2.0141
D 25.5171 23.5543 27.48 2.0141
D 25.5171 23.5543 31.4057 2.0141
D 25.5171 23.5543 35.3314 2.0141
D 25.5171 27.48 0 2.0141
D 25.5171 27.48 3.92571 2.0141
D 25.5171 27.48 7.85142 2.0141
D 25.5171 27.48 11.7771 2.0141
D 25.5171 27.48 15.7028 2.0141
D 25.5171 27.48 19.6286 2.0141
D 25.5171 27.48 23.5543 2.0141
D 25.5171 27.48 27.48 2.0141
D 25.5171 27.48 31.4057 2.0141
D 25.5171 27.48 35.3314 2.0141
D 25.5171 31.4057 0 2.0141
D 25.5171 31.4057 3.92571 2.0141
D 25.5171 31.4057 7.85142 2.0141
D 25.5171 31.4057 11.7771 2.0141
D 25.5171 31.4057 15.7028 2.0141
D 25.5171 31.4057 19.6286 2.0141
D 25.5171 31.4057 23.5543 2.0141
D 25.5171 31.4057 27.48 2.0141
D 25.5171 31.4057 31.4057 2.0141
D 25.5171 31.4057 35.3314 2.0141
D 25.5171 35.3314 0 2.0141
D 25.5171 35.3314 3.92571 2.0141
D 25.5171 35.3314 7.85142 2.0141
D 25.5171 35.3314 11.7771 2.0141
D 25.5171 35.3314 15.7028 2.0141
D 25.5171 35.3314 19.6286 2.0141
D 25.5171 35.3314 23.5543 2.0141
D 25.5171 35.3314 27.48 2.0141
D 25.5171 35.3314 31.4057 2.0141
D 25.5171 35.3314 35.3314 2.0141
D 29.4428 0 0 2.0141
D 29.4428 0 3.92571 2.0141
D 29.4428 0 7.85142 2.0141
D 29.4428 0 11.7771 2.0141
D 29.4428 0 15.7028 2.0141
D 29.4428 0 19.6286 2.0141
D 29.4428 0 23.5543 2.0141
D 29.4428 0 27.48 2.0141
D 29.4428 0 31.4057 2.0141
D 29.4428 0 35.3314 2.0141
D 29.4428 3.92571 0 2.0141
D 29.4428 3.92571 3.92571 2.0141
D 29.4428 3.92571 7.85142 2.0141
D 29.4428 3.92571 11.7771 2.0141
D 29.4428 3.92571 15.7028 2.0141
D 29.4428 3.92571 19.6286 2.0141
D 29.4428 3.92571 23.5543 2.0141
D 29.4428 3.92571 27.48 2.0141
D 29.4428 3.92571 31.4057 2.0141
D 29.4428 3.92571 35.3314 2.0141
D 29.4428 7.85142 0 2.0141
D 29.4428 7.85142 3.92571 2.0141
D 29.4428 7.85142 7.85142 2.0141
D 29.4428 7.85142 11.7771 2.0141
D 29.4428 7.85142 15.7028 2.0141
D 29.4428 7.85142 19.6286 2.0141
D 29.4428 7.85142 23.5543 2.0141
D 29.4428 7.85142 27.48 2.0141
D 29.4428 7.85142 31.4057 2.0141
D 29.4428 7.85142 35.3314 2.0141
D 29.4428 11.7771 0 2.0141
D 29.4428 11.7771 3.92571 2.0141
D 29.4428 11.7771 7.85142 2.0141
D 29.4428 11.7771 11.7771 2.0141
D 29.4428 11.7771 15.7028 2.0141
D 29.4428 11.7771 19.6286 2.0141
D 29.4428 11.7771 23.5543 2.0141
D 29.4428 11.7771 27.48 2.0141
D 29.4428 11.7771 31.4057 2.0141
D 29.4428 11.7771 35.3314 2.0141
D 29.4428 15.7028 0 2.0141
D 29.4428 15.7028 3.92571 2.0141
D 29.4428 15.7028 7.85142 2.0141
D 29.4428 15.7028 11.7771 2.0141
D 29.4428 15.7028 15.7028 2.0141
D 29.4428 15.7028 19.6286 2.0141
D 29.4428 15.7028 23.5543 2.0141
D 29.4428 15.7028 27.48 2.0141
D 29.4428 15.7028 31.4057 2.0141
D 29.4428 15.7028 35.3314 2.0141
D 29.4428 19.6286 0 2.0141
D 29.4428 19.6286 3.92571 2.0141
D 29.4428 19.6286 7.85142 2.0141
D 29.4428 19.6286 11.7771 2.0141
D 29.4428 19.6286 15.7028 2.0141
D 29.4428 19.6286 19.6286 2.0141
D 29.4428 19.6286 23.5543 2.0141
D 29.4428 19.6286 27.48 2.0141
D 29.4428 19.6286 31.4057 2.0141
D 29.4428 19.6286 35.3314 2.0141
D 29.4428 23.5543 0 2.0141
D 29.4428 23.5543 3.92571 2.0141
D 29.4428 23.5543 7.85142 2.0141
D 29.4428 23.5543 11.7771 2.0141
D 29.4428 23.5543 15.7028 2.0141
D 29.4428 23.5543 19.6286 2.0141
D 29.4428 23.5543 23.5543 2.0141
D 29.4428 23.5543 27.48 2.0141
D 29.4428 23.5543 31.4057 2.0141
D 29.4428 23.5543 35.3314 2.0141
D 29.4428 27.48 0 2.0141
D 29.4428 27.48 3.92571 2.0141
D 29.4428 27.48 7.85142 2.0141
D 29.4428 27.48 11.7771 2.0141
D 29.4428 27.48 15.7028 2.0141
D 29.4428 27.48 19.6286 2.0141
D 29.4428 27.48 23.5543 2.0141
D 29.4428 27.48 27.48 2.0141
D 29.4428 27.48 31.4057 2.0141
D 29.4428 27.48 35.3314 2.0141
D 29.4428 31.4057 0 2.0141
D 29.4428 31.4057 3.92571 2.0141
D 29.4428 31.4057 7.85142 2.0141
D 29.4428 31.4057 11.7771 2.0141
D 29.4428 31.4057 15.7028 2.0141
D 29.4428 31.4057 19.6286 2.0141
D 29.4428 31.4057 23.5543 2.0141
D 29.4428 31.4057 27.48 2.0141
D 29.4428 31.4057 31.4057 2.0141
D 29.4428 31.4057 35.3314 2.0141
D 29.4428 35.3314 0 2.0141
D 29.4428 35.3314 3.92571 2.0141
D 29.4428 35.3314 7.85142 2.0141
D 29.4428 35.3314 11.7771 2.0141
D 29.4428 35.3314 15.7028 2.0141
D 29.4428 35.3314 19.6286 2.0141
D 29.4428 35.3314 23.5543 2.0141
D 29.4428 35.3314 27.48 2.0141
D 29.4428 35.3314 31.4057 2.0141
D 29.4428 35.3314 35.3314 2.0141
D 33.3685 0 0 2.0141
D 33.3685 0 3.92571 2.0141
D 33.3685 0 7.85142 2.0141
D 33.3685 0 11.7771 2.0141
D 33.3685 0 15.7028 2.0141
D 33.3685 0 19.6286 2.0141
D 33.3685 0 23.5543 2.0141
D 33.3685 0 27.48 2.0141
D 33.3685 0 31.4057 2.0141
D 33.3685 0 35.3314 2.0141
D 33.3685 3.92571 0 2.0141
D 33.3685 3.92571 3.92571 2.0141
D 33.3685 3.92571 7.85142 2.0141
D 33.3685 3.92571 11.7771 2.0141
D 33.3685 3.92571 15.7028 2.0141
D 33.3685 3.92571 19.6286 2.0141
D 33.3685 3.92571 23.5543 2.0141
D 33.3685 3.92571 27.48 2.0141
D 33.3685 3.92571 31.4057 2.0141
D 33.3685 3.92571 35.3314 2.0141
D 33.3685 7.85142 0 2.0141
D 33.3685 7.85142 3.92571 2.0141
D 33.3685 7.85142 7.85142 2.0141
D 33.3685 7.85142 11.7771 2.0141
D 33.3685 7.85142 15.7028 2.0141
D 33.3685 7.85142 19.6286 2.0141
D 33.3685 7.85142 23.5543 2.0141
D 33.3685 7.85142 27.48 2.0141
D 33.3685 7.85142 31.4057 2.0141
D 33.3685 7.85142 35.3314 2.0141
D 33.3685 11.7771 0 2.0141
D 33.3685 11.7771 3.92571 2.0141
D 33.3685 11.7771 7.85142 2.0141
D 33.3685 11.7771 11.7771 2.0141
D 33.3685 11.7771 15.7028 2.0141
D 33.3685 11.7771 19.6286 2.0141
D 33.3685 11.7771 23.5543 2.0141
D 33.3685 11.7771 27.48 2.0141
D 33.3685 11.7771 31.4057 2.0141
D 33.3685 11.7771 35.3314 2.0141
D 33.3685 15.7028 0 2.0141
D 33.3685 15.7028 3.92571 2.0141
D 33.3685 15.7028 7.85142 2.0141
D 33.3685 15.7028 11.7771 2.0141
D 33.3685 15.7028 15.7028 2.0141
D 33.3685 15.7028 19.6286 2.0141
D 33.3685 15.7028 23.5543 2.0141
D 33.3685 15.7028 27.48 2.0141
D 33.3685 15.7028 31.4057 2.0141
D 33.3685 15.7028 35.3314 2.0141
D 33.3685 19.6286 0 2.0141
D 33.3685 19.6286 3.92571 2.0141
D 33.3685 19.6286 7.85142 2.0141
D 33.3685 19.6286 11.7771 2.0141
D 33.3685 19.6286 15.7028 2.0141
D 33.3685 19.6286 19.6286 2.0141
D 33.3685 19.6286 23.5543 2.0141
D 33.3685 19.6286 27.48 2.0141
D 33.3685 19.6286 31.4057 2.0141
D 33.3685 19.6286 35.3314 2.0141
D 33.3685 23.5543 0 2.0141
D 33.3685 23.5543 3.92571 2.0141
D 33.3685 23.5543 7.85142 2.0141
D 33.3685 23.5543 11.7771 2.0141
D 33.3685 23.5543 15.7028 2.0141
D 33.3685 23.5543 19.6286 2.0141
D 33.3685 23.5543 23.5543 2.0141
D 33.3685 23.5543 27.48 2.0141
D 33.3685 23.5543 31.4057 2.0141
D 33.3685 23.5543 35.3314 2.0141
D 33.3685 27.48 0 2.0141
D 33.3685 27.48 3.92571 2.0141
D 33.3685 27.48 7.85142 2.0141
D 33.3685 27.48 11.7771 2.0141
D 33.3685 27.48 15.7028 2.0141
D 33.3685 27.48 19.6286 2.0141
D 33.3685 27.48 23.5543 2.0141
D 33.3685 27.48 27.48 2.0141
D 33.3685 27.48 31.4057 2.0141
D 33.3685 27.48 35.3314 2.0141
D 33.3685 31.4057 0 2.0141
D 33.3685 31.4057 3.92571 2.0141
D 33.3685 31.4057 7.85142 2.0141
D 33.3685 31.4057 11.7771 2.0141
D 33.3685 31.4057 15.7028 2.0141
D 33.3685 31.4057 19.6286 2.0141
D 33.3685 31.4057 23.5543 2.0141
D 33.3685 31.4057 27.48 2.0141
D 33.3685 31.4057 31.4057 2.0141
D 33.3685 31.4057 35.3314 2.0141
D 33.3685 35.3314 0 2.0141
D 33.3685 35.3314 3.92571 2.0141
D 33.3685 35.3314 7.85142 2.0141
D 33.3685 35.3314 11.7771 2.0141
D 33.3685 35.3314 15.7028 2.0141
D 33.3685 35.3314 19.6286 2.0141
D 33.3685 35.3314 23.5543 2.0141
D 33.3685 35.3314 27.48 2.0141
D 33.3685 35.3314 31.4057 2.0141
D 33.3685 35.3314 35.3314 2.0141
D 37.2943 0 0 2.0141
D 37.2943 0 3.92571 2.0141
D 37.2943 0 7.85142 2.0141
D 37.2943 0 11.7771 2.0141
D 37.2943 0 15.7028 2.0141
D 37.2943 0 19.6286 2.0141
D 37.2943 0 23.5543 2.0141
D 37.2943 0 27.48 2.0141
D 37.2943 0 31.4057 2.0141
D 37.2943 0 35.3314 2.0141
D 37.2943 3.92571 0 2.0141
D 37.2943 3.92571 3.92571 2.0141
D 37.2943 3.92571 7.85142 2.0141
D 37.2943 3.92571 11.7771 2.0141
D 37.2943 3.92571 15.7028 2.0141
D 37.2943 3.92571 19.6286 2.0141
D 37.2943 3.92571 23.5543 2.0141
D 37.2943 3.92571 27.48 2.0141
D 37.2943 3.92571 31.4057 2.0141
D 37.2943 3.92571 35.3314 2.0141
D 37.2943 7.85142 0 2.0141
D 37.2943 7.85142 3.92571 2.0141
D 37.2943 7.85142 7.85142 2.0141
D 37.2943 7.85142 11.7771 2.0141
D 37.2943 7.85142 15.7028 2.0141
D 37.2943 7.85142 19.6286 2.0141
D 37.2943 7.85142 23.5543 2.0141
D 37.2943 7.85142 27.48 2.0141
D 37.2943 7.85142 31.4057 2.0141
D 37.2943 7.85142 35.3314 2.0141
D 37.2943 11.7771 0 2.0141
D 37.2943 11.7771 3.92571 2.0141
D 37.2943 11.7771 7.85142 2.0141
D 37.2943 11.7771 11.7771 2.0141
D 37.2943 11.7771 15.7028 2.0141
D 37.2943 11.7771 19.6286 2.0141
D 37.2943 11.7771 23.5543 2.0141
D 37.2943 11.7771 27.48 2.0141
D 37.2943 11.7771 31.4057 2.0141
D 37.2943 11.7771 35.3314 2.0141
D 37.2943 15.7028 0 2.0141
D 37.2943 15.7028 3.92571 2.0141
D 37.2943 15.7028 7.85142 2.0141
D 37.2943 15.7028 11.7771 2.0141
D 37.2943 15.7028 15.7028 2.0141
D 37.2943 15.7028 19.6286 2.0141
D 37.2943 15.7028 23.5543 2.0141
D 37.2943 15.7028 27.48 2.0141
D 37.2943 15.7028 31.4057 2.0141
D 37.2943 15.7028 35.3314 2.0141
D 37.2943 19.6286 0 2.0141
D 37.2943 19.6286 3.92571 2.0141
D 37.2943 19.6286 7.85142 2.0141
D 37.2943 19.6286 11.7771 2.0141
D 37.2943 19.6286 15.7028 2.0141
D 37.2943 19.6286 19.6286 2.0141
D 37.2943 19.6286 23.5543 2.0141
D 37.2943 19.6286 27.48 2.0141
D 37.2943 19.6286 31.4057 2.0141
D 37.2943 19.6286 35.3314 2.0141
D 37.2943 23.5543 0 2.0141
D 37.2943 23.5543 3.92571 2.0141
D 37.2943 23.5543 7.85142 2.0141
D 37.2943 23.5543 11.7771 2.0141
D 37.2943 23.5543 15.7028 2.0141
D 37.2943 23.5543 19.6286 2.0141
D 37.2943 23.5543 23.5543 2.0141
D 37.2943 23.5543 27.48 2.0141
D 37.2943 23.5543 31.4057 2.0141
D 37.2943 23.5543 35.3314 2.0141
D 37.2943 27.48 0 2.0141
D 37.2943 27.48 3.92571 2.0141
D 37.2943 27.48 7.85142 2.0141
D 37.2943 27.48 11.7771 2.0141
D 37.2943 27.48 15.7028 2.0141
D 37.2943 27.48 19.6286 2.0141
D 37.2943 27.48 23.5543 2.0141
D 37.2943 27.48 27.48 2.0141
D 37.2943 27.48 31.4057 2.0141
D 37.2943 27.48 35.3314 2.0141
D 37.2943 31.4057 0 2.0141
D 37.2943 31.4057 3.92571 2.0141
D 37.2943 31.4057 7.85142 2.0141
D 37.2943 31.4057 11.7771 2.0141
D 37.2943 31.4057 15.7028 2.0141
D 37.2943 31.4057 19.6286 2.0141
D 37.2943 31.4057 23.5543 2.0141
D 37.2943 31.4057 27.48 2.0141
D 37.2943 31.4057 31.4057 2.0141
D 37.2943 31.4057 35.3314 2.0141
D 37.2943 35.3314 0 2.0141
D 37.2943 35.3314 3.92571 2.0141
D 37.2943 35.3314 7.85142 2.0141
D 37.2943 35.3314 11.7771 2.0141
D 37.2943 35.3314 15.7028 2.0141
D 37.2943 35.3314 19.6286 2.0141
D 37.2943 35.3314 23.5543 2.0141
D 37.2943 35.3314 27.48 2.0141
D 37.2943 35.3314 31.4057 2.0141
D 37.2943 35.3314 35.3314 2.0141
D 1.96286 1.96286 1.96286 2.0141
D 1.96286 1.96286 5.88857 2.0141
D 1.96286 1.96286 9.81428 2.0141
D 1.96286 1.96286 13.74 2.0141
D 1.96286 1.96286 17.6657 2.0141
D 1.96286 1.96286 21.5914 2.0141
D 1.96286 1.96286 25.5171 2.0141
D 1.96286 1.96286 29.4428 2.0141
D 1.96286 1.96286 33.3685 2.0141
D 1.96286 1.96286 37.2943 2.0141
D 1.96286 5.88857 1.96286 2.0141
D 1.96286 5.88857 5.88857 2.0141
D 1.96286 5.88857 9.81428 2.0141
D 1.96286 5.88857 13.74 2.0141
D 1.96286 5.88857 17.6657 2.0141
D 1.96286 5.88857 21.5914 2.0141
D 1.96286 5.88857 25.5171 2.0141
D 1.96286 5.88857 29.4428 2.0141
D 1.96286 5.88857 33.3685 2.0141
D 1.96286 5.88857 37.2943 2.0141
D 1.96286 9.81428 1.96286 2.0141
D 1.96286 9.81428 5.88857 2.0141
D 1.96286 9.81428 9.81428 2.0141
D 1.96286 9.81428 13.74 2.0141
D 1.96286 9.81428 17.6657 2.0141
D 1.96286 9.81428 21.5914 2.0141
D 1.96286 9.81428 25.5171 2.0141
D 1.96286 9.81428 29.4428 2.0141
D 1.96286 9.81428 33.3685 2.0141
D 1.96286 9.81428 37.2943 2.0141
D 1.96286 13.74 1.96286 2.0141
D 1.96286 13.74 5.88857 2.0141
D 1.96286 13.74 9.81428 2.0141
D 1.96286 13.74 13.74 2.0141
D 1.96286 13.74 17.6657 2.0141
D 1.96286 13.74 21.5914 2.0141
D 1.96286 13.74 25.5171 2.0141
D 1.96286 13.74 29.4428 2.0141
D 1.96286 13.74 33.3685 2.0141
D 1.96286 13.74 37.2943 2.0141
D 1.96286 17.6657 1.96286 2.0141
D 1.96286 17.6657 5.88857 2.0141
D 1.96286 17.6657 9.81428 2.0141
D 1.96286 17.6657 13.74 2.0141
D 1.96286 17.6657 17.6657 2.0141
D 1.96286 17.6657 21.5914 2.0141
D 1.96286 17.6657 25.5171 2.0141
D 1.96286 17.6657 29.4428 2.0141
D 1.96286 17.6657 33.3685 2.0141
D 1.96286 17.6657 37.2943 2.0141
D 1.96286 21.5914 1.96286 2.0141
D 1.96286 21.5914 5.88857 2.0141
D 1.96286 21.5914 9.81428 2.0141
D 1.96286 21.5914 13.74 2.0141
D 1.96286 21.5914 17.6657 2.0141
D 1.96286 21.5914 21.5914 2.0141
D 1.96286 21.5914 25.5171 2.0141
D 1.96286 21.5914 29.4428 2.0141
D 1.96286 21.5914 33.3685 2.0141
D 1.96286 21.5914 37.2943 2.0141
D 1.96286 25.5171 1.96286 2.0141
D 1.96286 25.5171 5.88857 2.0141
D 1.96286 25.5171 9.81428 2.0141
D 1.96286 25.5171 13.74 2.0141
D 1.96286 25.5171 17.6657 2.0141
D 1.96286 25.5171 21.5914 2.0141
D 1.96286 25.5171 25.5171 2.0141
D 1.96286 25.5171 29.4428 2.0141
D 1.96286 25.5171 33.3685 2.0141
D 1.96286 25.5171 37.2943 2.0141
D 1.96286 29.4428 1.96286 2.0141
D 1.96286 29.4428 5.88857 2.0141
D 1.96286 29.4428 9.81428 2.0141
D 1.96286 29.4428 13.74 2.0141
D 1.96286 29.4428 17.6657 2.0141
D 1.96286 29.4428 21.5914 2.0141
D 1.96286 29.4428 25.5171 2.0141
D 1.96286 29.4428 29.4428 2.0141
D 1.96286 29.4428 33.3685 2.0141
D 1.96286 29.4428 37.2943 2.0141
D 1.96286 33.3685 1.96286 2.0141
D 1.96286 33.3685 5.88857 2.0141
D 1.96286 33.3685 9.81428 2.0141
D 1.96286 33.3685 13.74 2.0141
D 1.96286 33.3685 17.6657 2.0141
D 1.96286 33.3685 21.5914 2.0141
D 1.96286 33.3685 25.5171 2.0141
D 1.96286 33.3685 29.4428 2.0141
D 1.96286 33.3685 33.3685 2.0141
D 1.96286 33.3685 37.2943 2.0141
D 1.96286 37.2943 1.96286 2.0141
D 1.96286 37.2943 5.88857 2.0141
D 1.96286 37.2943 9.81428 2.0141
D 1.96286 37.2943 13.74 2.0141
D 1.96286 37.2943 17.6657 2.0141
D 1.96286 37.2943 21.5914 2.0141
D 1.96286 37.2943 25.5171 2.0141
D 1.96286 37.2943 29.4428 2.0141
D 1.96286 37.2943 33.3685 2.0141
D 1.96286 37.2943 37.2943 2.0141
D 5.88857 1.96286 1.96286 2.0141
D 5.88857 1.96286 5.88857 2.0141
D 5.88857 1.96286 9.81428 2.0141
D 5.88857 1.96286 13.74 2.0141
D 5.88857 1.96286 17.6657 2.0141
D 5.88857 1.96286 21.5914 2.0141
D 5.88857 1.96286 25.5171 2.0141
D 5.88857 1.96286 29.4428 2.0141
D 5.88857 1.96286 33.3685 2.0141
D 5.88857 1.96286 37.2943 2.0141
D 5.88857 5.88857 1.96286 2.0141
D 5.88857 5.88857 5.88857 2.0141
D 5.88857 5.88857 9.81428 2.0141
D 5.88857 5.88857 13.74 2.0141
D 5.88857 5.88857 17.6657 2.0141
D 5.88857 5.88857 21.5914 2.0141
D 5.88857 5.88857 25.5171 2.0141
D 5.88857 5.88857 29.4428 2.0141
D 5.88857 5.88857 33.3685 2.0141
D 5.88857 5.88857 37.2943 2.0141
D 5.88857 9.81428 1.96286 2.0141
D 5.88857 9.81428 5.88857 2.0141
D 5.88857 9.81428 9.81428 2.0141
D 5.88857 9.81428 13.74 2.0141
D 5.88857 9.81428 17.6657 2.0141
D 5.88857 9.81428 21.5914 2.0141
D 5.88857 9.81428 25.5171 2.0141
D 5.88857 9.81428 29.4428 2.0141
D 5.88857 9.81428 33.3685 2.0141
D 5.88857 9.81428 37.2943 2.0141
D 5.88857 13.74 1.96286 2.0141
D 5.88857 13.74 5.88857 2.0141
D 5.88857 13.74 9.81428 2.0141
D 5.88857 13.74 13.74 2.0141
D 5.88857 13.74 17.6657 2.0141
D 5.88857 13.74 21.5914 2.0141
D 5.88857 13.74 25.5171 2.0141
D 5.88857 13.74 29.4428 2.0141
D 5.88857 13.74 33.3685 2.0141
D 5.88857 13.74 37.2943 2.0141
D 5.88857 17.6657 1.96286 2.0141
D 5.88857 17.6657 5.88857 2.0141
D 5.88857 17.6657 9.81428 2.0141
D 5.88857 17.6657 13.74 2.0141
D 5.88857 17.6657 17.6657 2.0141
D 5.88857 17.6657 21.5914 2.0141
D 5.88857 17.6657 25.5171 2.0141
D 5.88857 17.6657 29.4428 2.0141
D 5.88857 17.6657 33.3685 2.0141
D 5.88857 17.6657 37.2943 2.0141
D 5.88857 21.5914 1.96286 2.0141
D 5.88857 21.5914 5.88857 2.0141
D 5.88857 21.5914 9.81428 2.0141
D 5.88857 21.5914 13.74 2.0141
D 5.88857 21.5914 17.6657 2.0141
D 5.88857 21.5914 21.5914 2.0141
D 5.88857 21.5914 25.5171 2.0141
D 5.88857 21.5914 29.4428 2.0141
D 5.88857 21.5914 33.3685 2.0141
D 5.88857 21.5914 37.2943 2.0141
D 5.88857 25.5171 1.96286 2.0141
D 5.88857 25.5171 5.88857 2.0141
D 5.88857 25.5171 9.81428 2.0141
D 5.88857 25.5171 13.74 2.0141
D 5.88857 25.5171 17.6657 2.0141
D 5.88857 25.5171 21.5914 2.0141
D 5.88857 25.5171 25.5171 2.0141
D 5.88857 25.5171 29.4428 2.0141
D 5.88857 25.5171 33.3685 2.0141
D 5.88857 25.5171 37.2943 2.0141
D 5.88857 29.4428 1.96286 2.0141
D 5.88857 29.4428 5.88857 2.0141
D 5.88857 29.4428 9.81428 2.0141
D 5.88857 29.4428 13.74 2.0141
D 5.88857 29.4428 17.6657 2.0141
D 5.88857 29.4428 21.5914 2.0141
D 5.88857 29.4428 25.5171 2.0141
D 5.88857 29.4428 29.4428 2.0141
D 5.88857 29.4428 33.3685 2.0141
D 5.88857 29.4428 37.2943 2.0141
D 5.88857 33.3685 1.96286 2.0141
D 5.88857 33.3685 5.88857 2.0141
D 5.88857 33.3685 9.81428 2.0141
D 5.88857 33.3685 13.74 2.0141
D 5.88857 33.3685 17.6657 2.0141
D 5.88857 33.3685 21.5914 2.0141
D 5.88857 33.3685 25.5171 2.0141
D 5.88857 33.3685 29.4428 2.0141
D 5.88857 33.3685 33.3685 2.0141
D 5.88857 33.3685 37.2943 2.0141
D 5.88857 37.2943 1.96286 2.0141
D 5.88857 37.2943 5.88857 2.0141
D 5.88857 37.2943 9.81428 2.0141
D 5.88857 37.2943 13.74 2.0141
D 5.88857 37.2943 17.6657 2.0141
D 5.88857 37.2943 21.5914 2.0141
D 5.88857 37.2943 25.5171 2.0141
D 5.88857 37.2943 29.4428 2.0141
D 5.88857 37.2943 33.3685 2.0141
D 5.88857 37.2943 37.2943 2.0141
D 9.81428 1.96286 1.96286 2.0141
D 9.81428 1.96286 5.88857 2.0141
D 9.81428 1.96286 9.81428 2.0141
D 9.81428 1.96286 13.74 2.0141
D 9.81428 1.96286 17.6657 2.0141
D 9.81428 1.96286 21.5914 2.0141
D 9.81428 1.96286 25.5171 2.0141
D 9.81428 1.96286 29.4428 2.0141
D 9.81428 1.96286 33.3685 2.0141
D 9.81428 1.96286 37.2943 2.0141
D 9.81428 5.88857 1.96286 2.0141
D 9.81428 5.88857 5.88857 2.0141
D 9.81428 5.88857 9.81428 2.0141
D 9.81428 5.88857 13.74 2.0141
D 9.81428 5.88857 17.6657 2.0141
D 9.81428 5.88857 21.5914 2.0141
D 9.81428 5.88857 25.5171 2.0141
D 9.81428 5.88857 29.4428 2.0141
D 9.81428 5.88857 33.3685 2.0141
D 9.81428 5.88857 37.2943 2.0141
D 9.81428 9.81428 1.96286 2.0141
D 9.81428 9.81428 5.88857 2.0141
D 9.81428 9.81428 9.81428 2.0141
D 9.81428 9.81428 13.74 2.0141
D 9.81428 9.81428 17.6657 2.0141
D 9.81428 9.81428 21.5914 2.0141
D 9.81428 9.81428 25.5171 2.0141
D 9.81428 9.81428 29.4428 2.0141
D 9.81428 9.81428 33.3685 2.0141
D 9.81428 9.81428 37.2943 2.0141
D 9.81428 13.74 1.96286 2.0141
D 9.81428 13.74 5.88857 2.0141
D 9.81428 13.74 9.81428 2.0141
D 9.81428 13.74 13.74 2.0141
D 9.81428 13.74 17.6657 2.0141
D 9.81428 13.74 21.5914 2.0141
D 9.81428 13.74 25.5171 2.0141
D 9.81428 13.74 29.4428 2.0141
D 9.81428 13.74 33.3685 2.0141
D 9.81428 13.74 37.2943 2.0141
D 9.81428 17.6657 1.96286 2.0141
D 9.81428 17.6657 5.88857 2.0141
D 9.81428 17.6657 9.81428 2.0141
D 9.81428 17.6657 13.74 2.0141
D 9.81428 17.6657 17.6657 2.0141
D 9.81428 17.6657 21.5914 2.0141
D 9.81428 17.6657 25.5171 2.0141
D 9.81428 17.6657 29.4428 2.0141
D 9.81428 17.6657 33.3685 2.0141
D 9.81428 17.6657 37.2943 2.0141
D 9.81428 21.5914 1.96286 2.0141
D 9.81428 21.5914 5.88857 2.0141
D 9.81428 21.5914 9.81428 2.0141
D 9.81428 21.5914 13.74 2.0141
D 9.81428 21.5914 17.6657 2.0141
D 9.81428 21.5914 21.5914 2.0141
D 9.81428 21.5914 25.5171 2.0141
D 9.81428 21.5914 29.4428 2.0141
D 9.81428 21.5914 33.3685 2.0141
D 9.81428 21.5914 37.2943 2.0141
D 9.81428 25.5171 1.96286 2.0141
D 9.81428 25.5171 5.88857 2.0141
D 9.81428 25.5171 9.81428 2.0141
D 9.81428 25.5171 13.74 2.0141
D 9.81428 25.5171 17.6657 2.0141
D 9.81428 25.5171 21.5914 2.0141
D 9.81428 25.5171 25.5171 2.0141
D 9.81428 25.5171 29.4428 2.0141
D 9.81428 25.5171 33.3685 2.0141
D 9.81428 25.5171 37.2943 2.0141
D 9.81428 29.4428 1.96286 2.0141
D 9.81428 29.4428 5.88857 2.0141
D 9.81428 29.4428 9.81428 2.0141
D 9.81428 29.4428 13.74 2.0141
D 9.81428 29.4428 17.6657 2.0141
D 9.81428 29.4428 21.5914 2.0141
D 9.81428 29.4428 25.5171 2.0141
D 9.81428 29.4428 29.4428 2.0141
D 9.81428 29.4428 33.3685 2.0141
D 9.81428 29.4428 37.2943 2.0141
D 9.81428 33.3685 1.96286 2.0141
D 9.81428 33.3685 5.88857 2.0141
D 9.81428 33.3685 9.81428 2.0141
D 9.81428 33.3685 13.74 2.0141
D 9.81428 33.3685 17.6657 2.0141
D 9.81428 33.3685 21.5914 2.0141
D 9.81428 33.3685 25.5171 2.0141
D 9.81428 33.3685 29.4428 2.0141
D 9.81428 33.3685 33.3685 2.0141
D 9.81428 33.3685 37.2943 2.0141
D 9.81428 37.2943 1.96286 2.0141
D 9.81428 37.2943 5.88857 2.0141
D 9.81428 37.2943 9.81428 2.0141
D 9.81428 37.2943 13.74 2.0141
D 9.81428 37.2943 17.6657 2.0141
D 9.81428 37.2943 21.5914 2.0141
D 9.81428 37.2943 25.5171 2.0141
D 9.81428 37.2943 29.4428 2.0141
D 9.81428 37.2943 33.3685 2.0141
D 9.81428 37.2943 37.2943 2.0141
D 13.74 1.96286 1.96286 2.0141
D 13.74 1.96286 5.88857 2.0141
D 13.74 1.96286 9.81428 2.0141
D 13.74 1.96286 13.74 2.0141
D 13.74 1.96286 17.6657 2.0141
D 13.74 1.96286 21.5914 2.0141
D 13.74 1.96286 25.5171 2.0141
D 13.74 1.96286 29.4428 2.0141
D 13.74 1.96286 33.3685 2.0141
D 13.74 1.96286 37.2943 2.0141
D 13.74 5.88857 1.96286 2.0141
D 13.74 5.88857 5.88857 2.0141
D 13.74 5.88857 9.81428 2.0141
D 13.74 5.88857 13.74 2.0141
D 13.74 5.88857 17.6657 2.0141
D 13.74 5.88857 21.5914 2.0141
D 13.74 5.88857 25.5171 2.0141
D 13.74 5.88857 29.4428 2.0141
D 13.74 5.88857 33.3685 2.0141
D 13.74 5.88857 37.2943 2.0141
D 13.74 9.81428 1.96286 2.0141
D 13.74 9.81428 5.88857 2.0141
D 13.74 9.81428 9.81428 2.0141
D 13.74 9.81428 13.74 2.0141
D 13.74 9.81428 17.6657 2.0141
D 13.74 9.81428 21.5914 2.0141
D 13.74 9.81428 25.5171 2.0141
D 13.74 9.81428 29.4428 2.0141
D 13.74 9.81428 33.3685 2.0141
D 13.74 9.81428 37.2943 2.0141
D 13.74 13.74 1.96286 2.0141
D 13.74 13.74 5.88857 2.0141
D 13.74 13.74 9.81428 2.0141
D 13.74 13.74 13.74 2.0141
D 13.74 13.74 17.6657 2.0141
D 13.74 13.74 21.5914 2.0141
D 13.74 13.74 25.5171 2.0141
D 13.74 13.74 29.4428 2.0141
D 13.74 13.74 33.3685 2.0141
D 13.74 13.74 37.2943 2.0141
D 13.74 17.6657 1.96286 2.0141
D 13.74 17.6657 5.88857 2.0141
D 13.74 17.6657 9.81428 2.0141
D 13.74 17.6657 13.74 2.0141
D 13.74 17.6657 17.6657 2.0141
D 13.74 17.6657 21.5914 2.0141
D 13.74 17.6657 25.5171 2.0141
D 13.74 17.6657 29.4428 2.0141
D 13.74 17.6657 33.3685 2.0141
D 13.74 17.6657 37.2943 2.0141
D 13.74 21.5914 1.96286 2.0141
D 13.74 21.5914 5.88857 2.0141
D 13.74 21.5914 9.81428 2.0141
D 13.74 21.5914 13.74 2.0141
D 13.74 21.5914 17.6657 2.0141
D 13.74 21.5914 21.5914 2.0141
D 13.74 21.5914 25.5171 2.0141
D 13.74 21.5914 29.4428 2.0141
D 13.74 21.5914 33.3685 2.0141
D 13.74 21.5914 37.2943 2.0141
D 13.74 25.5171 1.96286 2.0141
D 13.74 25.5171 5.88857 2.0141
D 13.74 25.5171 9.81428 2.0141
D 13.74 25.5171 13.74 2.0141
D 13.74 25.5171 17.6657 2.0141
D 13.74 25.5171 21.5914 2.0141
D 13.74 25.5171 25.5171 2.0141
D 13.74 25.5171 29.4428 2.0141
D 13.74 25.5171 33.3685 2.0141
D 13.74 25.5171 37.2943 2.0141
D 13.74 29.4428 1.96286 2.0141
D 13.74 29.4428 5.88857 2.0141
D 13.74 29.4428 9.81428 2.0141
D 13.74 29.4428 13.74 2.0141
D 13.74 29.4428 17.6657 2.0141
D 13.74 29.4428 21.5914 2.0141
D 13.74 29.4428 25.5171 2.0141
D 13.74 29.4428 29.4428 2.0141
D 13.74 29.4428 33.3685 2.0141
D 13.74 29.4428 37.2943 2.0141
D 13.74 33.3685 1.96286 2.0141
D 13.74 33.3685 5.88857 2.0141
D 13.74 33.3685 9.81428 2.0141
D 13.74 33.3685 13.74 2.0141
D 13.74 33.3685 17.6657 2.0141
D 13.74 33.3685 21.5914 2.0141
D 13.74 33.3685 25.5171 2.0141
D 13.74 33.3685 29.4428 2.0141
D 13.74 33.3685 33.3685 2.0141
D 13.74 33.3685 37.2943 2.0141
D 13.74 37.2943 1.96286 2.0141
D 13.74 37.2943 5.88857 2.0141
D 13.74 37.2943 9.81428 2.0141
D 13.74 37.2943 13.74 2.0141
D 13.74 37.2943 17.6657 2.0141
D 13.74 37.2943 21.5914 2.0141
D 13.74 37.2943 25.5171 2.0141
D 13.74 37.2943 29.4428 2.0141
D 13.74 37.2943 33.3685 2.0141
D 13.74 37.2943 37.2943 2.0141
D 17.6657 1.96286 1.96286 2.0141
D 17.6657 1.96286 5.88857 2.0141
D 17.6657 1.96286 9.81428 2.0141
D 17.6657 1.96286 13.74 2.0141
D 17.6657 1.96286 17.6657 2.0141
D 17.6657 1.96286 21.5914 2.0141
D 17.6657 1.96286 25.5171 2.0141
D 17.6657 1.96286 29.4428 2.0141
D 17.6657 1.96286 33.3685 2.0141
D 17.6657 1.96286 37.2943 2.0141
D 17.6657 5.88857 1.96286 2.0141
D 17.6657 5.88857 5.88857 2.0141
D 17.6657 5.88857 9.81428 2.0141
D 17.6657 5.88857 13.74 2.0141
D 17.6657 5.88857 17.6657 2.0141
D 17.6657 5.88857 21.5914 2.0141
D 17.6657 5.88857 25.5171 2.0141
D 17.6657 5.88857 29.4428 2.0141
D 17.6657 5.88857 33.3685 2.0141
D 17.6657 5.88857 37.2943 2.0141
D 17.6657 9.81428 1.96286 2.0141
D 17.6657 9.81428 5.88857 2.0141
D 17.6657 9.81428 9.81428 2.0141
D 17.6657 9.81428 13.74 2.0141
D 17.6657 9.81428 17.6657 2.0141
D 17.6657 9.81428 21.5914 2.0141
D 17.6657 9.81428 25.5171 2.0141
D 17.6657 9.81428 29.4428 2.0141
D 17.6657 9.81428 33.3685 2.0141
D 17.6657 9.81428 37.2943 2.0141
D 17.6657 13.74 1.96286 2.0141
D 17.6657 13.74 5.88857 2.0141
D 17.6657 13.74 9.81428 2.0141
D 17.6657 13.74 13.74 2.0141
D 17.6657 13.74 17.6657 2.0141
D 17.6657 13.74 21.5914 2.0141
D 17.6657 13.74 25.5171 2.0141
D 17.6657 13.74 29.4428 2.0141
D 17.6657 13.74 33.3685 2.0141
D 17.6657 13.74 37.2943 2.0141
D 17.6657 17.6657 1.96286 2.0141
D 17.6657 17.6657 5.88857 2.0141
D 17.6657 17.6657 9.81428 2.0141
D 17.6657 17.6657 13.74 2.0141
D 17.6657 17.6657 17.6657 2.0141
D 17.6657 17.6657 21.5914 2.0141
D 17.6657 17.6657 25.5171 2.0141
D 17.6657 17.6657 29.4428 2.0141
D 17.6657 17.6657 33.3685 2.0141
D 17.6657 17.6657 37.2943 2.0141
D 17.6657 21.5914 1.96286 2.0141
D 17.6657 21.5914 5.88857 2.0141
D 17.6657 21.5914 9.81428 2.0141
D 17.6657 21.5914 13.74 2.0141
D 17.6657 21.5914 17.6657 2.0141
D 17.6657 21.5914 21.5914 2.0141
D 17.6657 21.5914 25.5171 2.0141
D 17.6657 21.5914 29.4428 2.0141
D 17.6657 21.5914 33.3685 2.0141
D 17.6657 21.5914 37.2943 2.0141
D 17.6657 25.5171 1.96286 2.0141
D 17.6657 25.5171 5.88857 2.0141
D 17.6657 25.5171 9.81428 2.0141
D 17.6657 25.5171 13.74 2.0141
D 17.6657 25.5171 17.6657 2.0141
D 17.6657 25.5171 21.5914 2.0141
D 17.6657 25.5171 25.5171 2.0141
D 17.6657 25.5171 29.4428 2.0141
D 17.6657 25.5171 33.3685 2.0141
D 17.6657 25.5171 37.2943 2.0141
D 17.6657 29.4428 1.96286 2.0141
D 17.6657 29.4428 5.88857 2.0141
D 17.6657 29.4428 9.81428 2.0141
D 17.6657 29.4428 13.74 2.0141
D 17.6657 29.4428 17.6657 2.0141
D 17.6657 29.4428 21.5914 2.0141
D 17.6657 29.4428 25.5171 2.0141
D 17.6657 29.4428 29.4428 2.0141
D 17.6657 29.4428 33.3685 2.0141
D 17.6657 29.4428 37.2943 2.0141
D 17.6657 33.3685 1.96286 2.0141
D 17.6657 33.3685 5.88857 2.0141
D 17.6657 33.3685 9.81428 2.0141
D 17.6657 33.3685 13.74 2.0141
D 17.6657 33.3685 17.6657 2.0141
D 17.6657 33.3685 21.5914 2.0141
D 17.6657 33.3685 25.5171 2.0141
D 17.6657 33.3685 29.4428 2.0141
D 17.6657 33.3685 33.3685 2.0141
D 17.6657 33.3685 37.2943 2.0141
D 17.6657 37.2943 1.96286 2.0141
D 17.6657 37.2943 5.88857 2.0141
D 17.6657 37.2943 9.81428 2.0141
D 17.6657 37.2943 13.74 2.0141
D 17.6657 37.2943 17.6657 2.0141
D 17.6657 37.2943 21.5914 2.0141
D 17.6657 37.2943 25.5171 2.0141
D 17.6657 37.2943 29.4428 2.0141
D 17.6657 37.2943 33.3685 2.0141
D 17.6657 37.2943 37.2943 2.0141
D 21.5914 1.96286 1.96286 2.0141
D 21.5914 1.96286 5.88857 2.0141
D 21.5914 1.96286 9.81428 2.0141
D 21.5914 1.96286 13.74 2.0141
D 21.5914 1.96286 17.6657 2.0141
D 21.5914 1.96286 21.5914 2.0141
D 21.5914 1.96286 25.5171 2.0141
D 21.5914 1.96286 29.4428 2.0141
D 21.5914 1.96286 33.3685 2.0141
D 21.5914 1.96286 37.2943 2.0141
D 21.5914 5.88857 1.96286 2.0141
D 21.5914 5.88857 5.88857 2.0141
D 21.5914 5.88857 9.81428 2.0141
D 21.5914 5.88857 13.74 2.0141
D 21.5914 5.88857 17.6657 2.0141
D 21.5914 5.88857 21.5914 2.0141
D 21.5914 5.88857 25.5171 2.0141
D 21.5914 5.88857 29.4428 2.0141
D 21.5914 5.88857 33.3685 2.0141
D 21.5914 5.88857 37.2943 2.0141
D 21.5914 9.81428 1.96286 2.0141
D 21.5914 9.81428 5.88857 2.0141
D 21.5914 9.81428 9.81428 2.0141
D 21.5914 9.81428 13.74 2.0141
D 21.5914 9.81428 17.6657 2.0141
D 21.5914 9.81428 21.5914 2.0141
D 21.5914 9.81428 25.5171 2.0141
D 21.5914 9.81428 29.4428 2.0141
D 21.5914 9.81428 33.3685 2.0141
D 21.5914 9.81428 37.2943 2.0141
D 21.5914 13.74 1.96286 2.0141
D 21.5914 13.74 5.88857 2.0141
D 21.5914 13.74 9.81428 2.0141
D 21.5914 13.74 13.74 2.0141
D 21.5914 13.74 17.6657 2.0141
D 21.5914 13.74 21.5914 2.0141
D 21.5914 13.74 25.5171 2.0141
D 21.5914 13.74 29.4428 2.0141
D 21.5914 13.74 33.3685 2.0141
D 21.5914 13.74 37.2943 2.0141
D 21.5914 17.6657 1.96286 2.0141
D 21.5914 17.6657 5.88857 2.0141
D 21.5914 17.6657 9.81428 2.0141
D 21.5914 17.6657 13.74 2.0141
D 21.5914 17.6657 17.6657 2.0141
D 21.5914 17.6657 21.5914 2.0141
D 21.5914 17.6657 25.5171 2.0141
D 21.5914 17.6657 29.4428 2.0141
D 21.5914 17.6657 33.3685 2.0141
D 21.5914 17.6657 37.2943 2.0141
D 21.5914 21.5914 1.96286 2.0141
D 21.5914 21.5914 5.88857 2.0141
D 21.5914 21.5914 9.81428 2.0141
D 21.5914 21.5914 13.74 2.0141
D 21.5914 21.5914 17.6657 2.0141
D 21.5914 21.5914 21.5914 2.0141
D 21.5914 21.5914 25.5171 2.0141
D 21.5914 21.5914 29.4428 2.0141
D 21.5914 21.5914 33.3685 2.0141
D 21.5914 21.5914 37.2943 2.0141
D 21.5914 25.5171 1.96286 2.0141
D 21.5914 25.5171 5.88857 2.0141
D 21.5914 25.5171 9.81428 2.0141
D 21.5914 25.5171 13.74 2.0141
D 21.5914 25.5171 17.6657 2.0141
D 21.5914 25.5171 21.5914 2.0141
D 21.5914 25.5171 25.5171 2.0141
D 21.5914 25.5171 29.4428 2.0141
D 21.5914 25.5171 33.3685 2.0141
D 21.5914 25.5171 37.2943 2.0141
D 21.5914 29.4428 1.96286 2.0141
D 21.5914 29.4428 5.88857 2.0141
D 21.5914 29.4428 9.81428 2.0141
D 21.5914 29.4428 13.74 2.0141
D 21.5914 29.4428 17.6657 2.0141
D 21.5914 29.4428 21.5914 2.0141
D 21.5914 29.4428 25.5171 2.0141
D 21.5914 29.4428 29.4428 2.0141
D 21.5914 29.4428 33.3685 2.0141
D 21.5914 29.4428 37.2943 2.0141
D 21.5914 33.3685 1.96286 2.0141
D 21.5914 33.3685 5.88857 2.0141
D 21.5914 33.3685 9.81428 2.0141
D 21.5914 33.3685 13.74 2.0141
D 21.5914 33.3685 17.6657 2.0141
D 21.5914 33.3685 21.5914 2.0141
D 21.5914 33.3685 25.5171 2.0141
D 21.5914 33.3685 29.4428 2.0141
D 21.5914 33.3685 33.3685 2.0141
D 21.5914 33.3685 37.2943 2.0141
D 21.5914 37.2943 1.96286 2.0141
D 21.5914 37.2943 5.88857 2.0141
D 21.5914 37.2943 9.81428 2.0141
D 21.5914 37.2943 13.74 2.0141
D 21.5914 37.2943 17.6657 2.0141
D 21.5914 37.2943 21.5914 2.0141
D 21.5914 37.2943 25.5171 2.0141
D 21.5914 37.2943 29.4428 2.0141
D 21.5914 37.2943 33.3685 2.0141
D 21.5914 37.2943 37.2943 2.0141
D 25.5171 1.96286 1.96286 2.0141
D 25.5171 1.96286 5.88857 2.0141
D 25.5171 1.96286 9.81428 2.0141
D 25.5171 1.96286 13.74 2.0141
D 25.5171 1.96286 17.6657 2.0141
D 25.5171 1.96286 21.5914 2.0141
D 25.5171 1.96286 25.5171 2.0141
D 25.5171 1.96286 29.4428 2.0141
D 25.5171 1.96286 33.3685 2.0141
D 25.5171 1.96286 37.2943 2.0141
D 25.5171 5.88857 1.96286 2.0141
D 25.5171 5.88857 5.88857 2.0141
D 25.5171 5.88857 9.81428 2.0141
D 25.5171 5.88857 13.74 2.0141
D 25.5171 5.88857 17.6657 2.0141
D 25.5171 5.88857 21.5914 2.0141
D 25.5171 5.88857 25.5171 2.0141
D 25.5171 5.88857 29.4428 2.0141
D 25.5171 5.88857 33.3685 2.0141
D 25.5171 5.88857 37.2943 2.0141
D 25.5171 9.81428 1.96286 2.0141
D 25.5171 9.81428 5.88857 2.0141
D 25.5171 9.81428 9.81428 2.0141
D 25.5171 9.81428 13.74 2.0141
D 25.5171 9.81428 17.6657 2.0141
D 25.5171 9.81428 21.5914 2.0141
D 25.5171 9.81428 25.5171 2.0141
D 25.5171 9.81428 29.4428 2.0141
D 25.5171 9.81428 33.3685 2.0141
D 25.5171 9.81428 37.2943 2.0141
D 25.5171 13.74 1.96286 2.0141
D 25.5171 13.74 5.88857 2.0141
D 25.5171 13.74 9.81428 2.0141
D 25.5171 13.74 13.74 2.0141
D 25.5171 13.74 17.6657 2.0141
D 25.5171 13.74 21.5914 2.0141
D 25.5171 13.74 25.5171 2.0141
D 25.5171 13.74 29.4428 2.0141
D 25.5171 13.74 33.3685 2.0141
D 25.5171 13.74 37.2943 2.0141
D 25.5171 17.6657 1.96286 2.0141
D 25.5171 17.6657 5.88857 2.0141
D 25.5171 17.6657 9.81428 2.0141
D 25.5171 17.6657 13.74 2.0141
D 25.5171 17.6657 17.6657 2.0141
D 25.5171 17.6657 21.5914 2.0141
D 25.5171 17.6657 25.5171 2.0141
D 25.5171 17.6657 29.4428 2.0141
D 25.5171 17.6657 33.3685 2.0141
D 25.5171 17.6657 37.2943 2.0141
D 25.5171 21.5914 1.96286 2.0141
D 25.5171 21.5914 5.88857 2.0141
D 25.5171 21.5914 9.81428 2.0141
D 25.5171 21.5914 13.74 2.0141
D 25.5171 21.5914 17.6657 2.0141
D 25.5171 21.5914 21.5914 2.0141
D 25.5171 21.5914 25.5171 2.0141
D 25.5171 21.5914 29.4428 2.0141
D 25.5171 21.5914 33.3685 2.0141
D 25.5171 21.5914 37.2943 2.0141
D 25.5171 25.5171 1.96286 2.0141
D 25.5171 25.5171 5.88857 2.0141
D 25.5171 25.5171 9.81428 2.0141
D 25.5171 25.5171 13.74 2.0141
D 25.5171 25.5171 17.6657 2.0141
D 25.5171 25.5171 21.5914 2.0141
D 25.5171 25.5171 25.5171 2.0141
D 25.5171 25.5171 29.4428 2.0141
D 25.5171 25.5171 33.3685 2.0141
D 25.5171 25.5171 37.2943 2.0141
D 25.5171 29.4428 1.96286 2.0141
D 25.5171 29.4428 5.88857 2.0141
D 25.5171 29.4428 9.81428 2.0141
D 25.5171 29.4428 13.74 2.0141
D 25.5171 29.4428 17.6657 2.0141
D 25.5171 29.4428 21.5914 2.0141
D 25.5171 29.4428 25.5171 2.0141
D 25.5171 29.4428 29.4428 2.0141
D 25.5171 29.4428 33.3685 2.0141
D 25.5171 29.4428 37.2943 2.0141
D 25.5171 33.3685 1.96286 2.0141
D 25.5171 33.3685 5.88857 2.0141
D 25.5171 33.3685 9.81428 2.0141
D 25.5171 33.3685 13.74 2.0141
D 25.5171 33.3685 17.6657 2.0141
D 25.5171 33.3685 21.5914 2.0141
D 25.5171 33.3685 25.5171 2.0141
D 25.5171 33.3685 29.4428 2.0141
D 25.5171 33.3685 33.3685 2.0141
D 25.5171 33.3685 37.2943 2.0141
D 25.5171 37.2943 1.96286 2.0141
D 25.5171 37.2943 5.88857 2.0141
D 25.5171 37.2943 9.81428 2.0141
D 25.5171 37.2943 13.74 2.0141
D 25.5171 37.2943 17.6657 2.0141
D 25.5171 37.2943 21.5914 2.0141
D 25.5171 37.2943 25.5171 2.0141
D 25.5171 37.2943 29.4428 2.0141
D 25.5171 37.2943 33.3685 2.0141
D 25.5171 37.2943 37.2943 2.0141
D 29.4428 1.96286 1.96286 2.0141
D 29.4428 1.96286 5.88857 2.0141
D 29.4428 1.96286 9.81428 2.0141
D 29.4428 1.96286 13.74 2.0141
D 29.4428 1.96286 17.6657 2.0141
D 29.4428 1.96286 21.5914 2.0141
D 29.4428 1.96286 25.5171 2.0141
D 29.4428 1.96286 29.4428 2.0141
D 29.4428 1.96286 33.3685 2.0141
D 29.4428 1.96286 37.2943 2.0141
D 29.4428 5.88857 1.96286 2.0141
D 29.4428 5.88857 5.88857 2.0141
D 29.4428 5.88857 9.81428 2.0141
D 29.4428 5.88857 13.74 2.0141
D 29.4428 5.88857 17.6657 2.0141
D 29.4428 5.88857 21.5914 2.0141
D 29.4428 5.88857 25.5171 2.0141
D 29.4428 5.88857 29.4428 2.0141
D 29.4428 5.88857 33.3685 2.0141
D 29.4428 5.88857 37.2943 2.0141
D 29.4428 9.81428 1.96286 2.0141
D 29.4428 9.81428 5.88857 2.0141
D 29.4428 9.81428 9.81428 2.0141
D 29.4428 9.81428 13.74 2.0141
D 29.4428 9.81428 17.6657 2.0141
D 29.4428 9.81428 21.5914 2.0141
D 29.4428 9.81428 25.5171 2.0141
D 29.4428 9.81428 29.4428 2.0141
D 29.4428 9.81428 33.3685 2.0141
D 29.4428 9.81428 37.2943 2.0141
D 29.4428 13.74 1.96286 2.0141
D 29.4428 13.74 5.88857 2.0141
D 29.4428 13.74 9.81428 2.0141
D 29.4428 13.74 13.74 2.0141
D 29.4428 13.74 17.6657 2.0141
D 29.4428 13.74 21.5914 2.0141
D 29.4428 13.74 25.5171 2.0141
D 29.4428 13.74 29.4428 2.0141
D 29.4428 13.74 33.3685 2.0141
D 29.4428 13.74 37.2943 2.0141
D 29.4428 17.6657 1.96286 2.0141
D 29.4428 17.6657 5.88857 2.0141
D 29.4428 17.6657 9.81428 2.0141
D 29.4428 17.6657 13.74 2.0141
D 29.4428 17.6657 17.6657 2.0141
D 29.4428 17.6657 21.5914 2.0141
D 29.4428 17.6657 25.5171 2.0141
D 29.4428 17.6657 29.4428 2.0141
D 29.4428 17.6657 33.3685 2.0141
D 29.4428 17.6657 37.2943 2.0141
D 29.4428 21.5914 1.96286 2.0141
D 29.4428 21.5914 5.88857 2.0141
D 29.4428 21.5914 9.81428 2.0141
D 29.4428 21.5914 13.74 2.0141
D 29.4428 21.5914 17.6657 2.0141
D 29.4428 21.5914 21.5914 2.0141
D 29.4428 21.5914 25.5171 2.0141
D 29.4428 21.5914 29.4428 2.0141
D 29.4428 21.5914 33.3685 2.0141
D 29.4428 21.5914 37.2943 2.0141
D 29.4428 25.5171 1.96286 2.0141
D 29.4428 25.5171 5.88857 2.0141
D 29.4428 25.5171 9.81428 2.0141
D 29.4428 25.5171 13.74 2.0141
D 29.4428 25.5171 17.6657 2.0141
D 29.4428 25.5171 21.5914 2.0141
D 29.4428 25.5171 25.5171 2.0141
D 29.4428 25.5171 29.4428 2.0141
D 29.4428 25.5171 33.3685 2.0141
D 29.4428 25.5171 37.2943 2.0141
D 29.4428 29.4428 1.96286 2.0141
D 29.4428 29.4428 5.88857 2.0141
D 29.4428 29.4428 9.81428 2.0141
D 29.4428 29.4428 13.74 2.0141
D 29.4428 29.4428 17.6657 2.0141
D 29.4428 29.4428 21.5914 2.0141
D 29.4428 29.4428 25.5171 2.0141
D 29.4428 29.4428 29.4428 2.0141
D 29.4428 29.4428 33.3685 2.0141
D 29.4428 29.4428 37.2943 2.0141
D 29.4428 33.3685 1.96286 2.0141
D 29.4428 33.3685 5.88857 2.0141
D 29.4428 33.3685 9.81428 2.0141
D 29.4428 33.3685 13.74 2.0141
D 29.4428 33.3685 17.6657 2.0141
D 29.4428 33.3685 21.5914 2.0141
D 29.4428 33.3685 25.5171 2.0141
D 29.4428 33.3685 29.4428 2.0141
D 29.4428 33.3685 33.3685 2.0141
D 29.4428 33.3685 37.2943 2.0141
D 29.4428 37.2943 1.96286 2.0141
D 29.4428 37.2943 5.88857 2.0141
D 29.4428 37.2943 9.81428 2.0141
D 29.4428 37.2943 13.74 2.0141
D 29.4428 37.2943 17.6657 2.0141
D 29.4428 37.2943 21.5914 2.0141
D 29.4428 37.2943 25.5171 2.0141
D 29.4428 37.2943 29.4428 2.0141
D 29.4428 37.2943 33.3685 2.0141
D 29.4428 37.2943 37.2943 2.0141
D 33.3685 1.96286 1.96286 2.0141
D 33.3685 1.96286 5.88857 2.0141
D 33.3685 1.96286 9.81428 2.0141
D 33.3685 1.96286 13.74 2.0141
D 33.3685 1.96286 17.6657 2.0141
D 33.3685 1.96286 21.5914 2.0141
D 33.3685 1.96286 25.5171 2.0141
D 33.3685 1.96286 29.4428 2.0141
D 33.3685 1.96286 33.3685 2.0141
D 33.3685 1.96286 37.2943 2.0141
D 33.3685 5.88857 1.96286 2.0141
D 33.3685 5.88857 5.88857 2.0141
D 33.3685 5.88857 9.81428 2.0141
D 33.3685 5.88857 13.74 2.0141
D 33.3685 5.88857 17.6657 2.0141
D 33.3685 5.88857 21.5914 2.0141
D 33.3685 5.88857 25.5171 2.0141
D 33.3685 5.88857 29.4428 2.0141
D 33.3685 5.88857 33.3685 2.0141
D 33.3685 5.88857 37.2943 2.0141
D 33.3685 9.81428 1.96286 2.0141
D 33.3685 9.81428 5.88857 2.0141
D 33.3685 9.81428 9.81428 2.0141
D 33.3685 9.81428 13.74 2.0141
D 33.3685 9.81428 17.6657 2.0141
D 33.3685 9.81428 21.5914 2.0141
D 33.3685 9.81428 25.5171 2.0141
D 33.3685 9.81428 29.4428 2.0141
D 33.3685 9.81428 33.3685 2.0141
D 33.3685 9.81428 37.2943 2.0141
D 33.3685 13.74 1.96286 2.0141
D 33.3685 13.74 5.88857 2.0141
D 33.3685 13.74 9.81428 2.0141
D 33.3685 13.74 13.74 2.0141
D 33.3685 13.74 17.6657 2.0141
D 33.3685 13.74 21.5914 2.0141
D 33.3685 13.74 25.5171 2.0141
D 33.3685 13.74 29.4428 2.0141
D 33.3685 13.74 33.3685 2.0141
D 33.3685 13.74 37.2943 2.0141
D 33.3685 17.6657 1.96286 2.0141
D 33.3685 17.6657 5.88857 2.0141
D 33.3685 17.6657 9.81428 2.0141
D 33.3685 17.6657 13.74 2.0141
D 33.3685 17.6657 17.6657 2.0141
D 33.3685 17.6657 21.5914 2.0141
D 33.3685 17.6657 25.5171 2.0141
D 33.3685 17.6657 29.4428 2.0141
D 33.3685 17.6657 33.3685 2.0141
D 33.3685 17.6657 37.2943 2.0141
D 33.3685 21.5914 1.96286 2.0141
D 33.3685 21.5914 5.88857 2.0141
D 33.3685 21.5914 9.81428 2.0141
D 33.3685 21.5914 13.74 2.0141
D 33.3685 21.5914 17.6657 2.0141
D 33.3685 21.5914 21.5914 2.0141
D 33.3685 21.5914 25.5171 2.0141
D 33.3685 21.5914 29.4428 2.0141
D 33.3685 21.5914 33.3685 2.0141
D 33.3685 21.5914 37.2943 2.0141
D 33.3685 25.5171 1.96286 2.0141
D 33.3685 25.5171 5.88857 2.0141
D 33.3685 25.5171 9.81428 2.0141
D 33.3685 25.5171 13.74 2.0141
D 33.3685 25.5171 17.6657 2.0141
D 33.3685 25.5171 21.5914 2.0141
D 33.3685 25.5171 25.5171 2.0141
D 33.3685 25.5171 29.4428 2.0141
D 33.3685 25.5171 33.3685 2.0141
D 33.3685 25.5171 37.2943 2.0141
D 33.3685 29.4428 1.96286 2.0141
D 33.3685 29.4428 5.88857 2.0141
D 33.3685 29.4428 9.81428 2.0141
D 33.3685 29.4428 13.74 2.0141
D 33.3685 29.4428 17.6657 2.0141
D 33.3685 29.4428 21.5914 2.0141
D 33.3685 29.4428 25.5171 2.0141
D 33.3685 29.4428 29.4428 2.0141
D 33.3685 29.4428 33.3685 2.0141
D 33.3685 29.4428 37.2943 2.0141
D 33.3685 33.3685 1.96286 2.0141
D 33.3685 33.3685 5.88857 2.0141
D 33.3685 33.3685 9.81428 2.0141
D 33.3685 33.3685 13.74 2.0141
D 33.3685 33.3685 17.6657 2.0141
D 33.3685 33.3685 21.5914 2.0141
D 33.3685 33.3685 25.5171 2.0141
D 33.3685 33.3685 29.4428 2.0141
D 33.3685 33.3685 33.3685 2.0141
D 33.3685 33.3685 37.2943 2.0141
D 33.3685 37.2943 1.96286 2.0141
D 33.3685 37.2943 5.88857 2.0141
D 33.3685 37.2943 9.81428 2.0141
D 33.3685 37.2943 13.74 2.0141
D 33.3685 37.2943 17.6657 2.0141
D 33.3685 37.2943 21.5914 2.0141
D 33.3685 37.2943 25.5171 2.0141
D 33.3685 37.2943 29.4428 2.0141
D 33.3685 37.2943 33.3685 2.0141
D 33.3685 37.2943 37.2943 2.0141
D 37.2943 1.96286 1.96286 2.0141
D 37.2943 1.96286 5.88857 2.0141
D 37.2943 1.96286 9.81428 2.0141
D 37.2943 1.96286 13.74 2.0141
D 37.2943 1.96286 17.6657 2.0141
D 37.2943 1.96286 21.5914 2.0141
D 37.2943 1.96286 25.5171 2.0141
D 37.2943 1.96286 29.4428 2.0141
D 37.2943 1.96286 33.3685 2.0141
D 37.2943 1.96286 37.2943 2.0141
D 37.2943 5.88857 1.96286 2.0141
D 37.2943 5.88857 5.88857 2.0141
D 37.2943 5.88857 9.81428 2.0141
D 37.2943 5.88857 13.74 2.0141
D 37.2943 5.88857 17.6657 2.0141
D 37.2943 5.88857 21.5914 2.0141
D 37.2943 5.88857 25.5171 2.0141
D 37.2943 5.88857 29.4428 2.0141
D 37.2943 5.88857 33.3685 2.0141
D 37.2943 5.88857 37.2943 2.0141
D 37.2943 9.81428 1.96286 2.0141
D 37.2943 9.81428 5.88857 2.0141
D 37.2943 9.81428 9.81428 2.0141
D 37.2943 9.81428 13.74 2.0141
D 37.2943 9.81428 17.6657 2.0141
D 37.2943 9.81428 21.5914 2.0141
D 37.2943 9.81428 25.5171 2.0141
D 37.2943 9.81428 29.4428 2.0141
D 37.2943 9.81428 33.3685 2.0141
D 37.2943 9.81428 37.2943 2.0141
D 37.2943 13.74 1.96286 2.0141
D 37.2943 13.74 5.88857 2.0141
D 37.2943 13.74 9.81428 2.0141
D 37.2943 13.74 13.74 2.0141
D 37.2943 13.74 17.6657 2.0141
D 37.2943 13.74 21.5914 2.0141
D 37.2943 13.74 25.5171 2.0141
D 37.2943 13.74 29.4428 2.0141
D 37.2943 13.74 33.3685 2.0141
D 37.2943 13.74 37.2943 2.0141
D 37.2943 17.6657 1.96286 2.0141
D 37.2943 17.6657 5.88857 2.0141
D 37.2943 17.6657 9.81428 2.0141
D 37.2943 17.6657 13.74 2.0141
D 37.2943 17.6657 17.6657 2.0141
D 37.2943 17.6657 21.5914 2.0141
D 37.2943 17.6657 25.5171 2.0141
D 37.2943 17.6657 29.4428 2.0141
D 37.2943 17.6657 33.3685 2.0141
D 37.2943 17.6657 37.2943 2.0141
D 37.2943 21.5914 1.96286 2.0141
D 37.2943 21.5914 5.88857 2.0141
D 37.2943 21.5914 9.81428 2.0141
D 37.2943 21.5914 13.74 2.0141
D 37.2943 21.5914 17.6657 2.0141
D 37.2943 21.5914 21.5914 2.0141
D 37.2943 21.5914 25.5171 2.0141
D 37.2943 21.5914 29.4428 2.0141
D 37.2943 21.5914 33.3685 2.0141
D 37.2943 21.5914 37.2943 2.0141
D 37.2943 25.5171 1.96286 2.0141
D 37.2943 25.5171 5.88857 2.0141
D 37.2943 25.5171 9.81428 2.0141
D 37.2943 25.5171 13.74 2.0141
D 37.2943 25.5171 17.6657 2.0141
D 37.2943 25.5171 21.5914 2.0141
D 37.2943 25.5171 25.5171 2.0141
D 37.2943 25.5171 29.4428 2.0141
D 37.2943 25.5171 33.3685 2.0141
D 37.2943 25.5171 37.2943 2.0141
D 37.2943 29.4428 1.96286 2.0141
D 37.2943 29.4428 5.88857 2.0141
D 37.2943 29.4428 9.81428 2.0141
D 37.2943 29.4428 13.74 2.0141
D 37.2943 29.4428 17.6657 2.0141
D 37.2943 29.4428 21.5914 2.0141
D 37.2943 29.4428 25.5171 2.0141
D 37.2943 29.4428 29.4428 2.0141
D 37.2943 29.4428 33.3685 2.0141
D 37.2943 29.4428 37.2943 2.0141
D 37.2943 33.3685 1.96286 2.0141
D 37.2943 33.3685 5.88857 2.0141
D 37.2943 33.3685 9.81428 2.0141
D 37.2943 33.3685 13.74 2.0141
D 37.2943 33.3685 17.6657 2.0141
D 37.2943 33.3685 21.5914 2.0141
D 37.2943 33.3685 25.5171 2.0141
D 37.2943 33.3685 29.4428 2.0141
D 37.2943 33.3685 33.3685 2.0141
D 37.2943 33.3685 37.2943 2.0141
D 37.2943 37.2943 1.96286 2.0141
D 37.2943 37.2943 5.88857 2.0141
D 37.2943 37.2943 9.81428 2.0141
D 37.2943 37.2943 13.74 2.0141
D 37.2943 37.2943 17.6657 2.0141
D 37.2943 37.2943 21.5914 2.0141
D 37.2943 37.2943 25.5171 2.0141
D 37.2943 37.2943 29.4428 2.0141
D 37.2943 37.2943 33.3685 2.0141
D 37.2943 37.2943 37.2943 2.0141
D 0 0 1.96286 2.0141
D 0 0 5.88857 2.0141
D 0 0 9.81428 2.0141
D 0 0 13.74 2.0141
D 0 0 17.6657 2.0141
D 0 0 21.5914 2.0141
D 0 0 25.5171 2.0141
D 0 0 29.4428 2.0141
D 0 0 33.3685 2.0141
D 0 0 37.2943 2.0141
D 0 3.92571 1.96286 2.0141
D 0 3.92571 5.88857 2.0141
D 0 3.92571 9.81428 2.0141
D 0 3.92571 13.74 2.0141
D 0 3.92571 17.6657 2.0141
D 0 3.92571 21.5914 2.0141
D 0 3.92571 25.5171 2.0141
D 0 3.92571 29.4428 2.0141
D 0 3.92571 33.3685 2.0141
D 0 3.92571 37.2943 2.0141
D 0 7.85142 1.96286 2.0141
D 0 7.85142 5.88857 2.0141
D 0 7.85142 9.81428 2.0141
D 0 7.85142 13.74 2.0141
D 0 7.85142 17.6657 2.0141
D 0 7.85142 21.5914 2.0141
D 0 7.85142 25.5171 2.0141
D 0 7.85142 29.4428 2.0141
D 0 7.85142 33.3685 2.0141
D 0 7.85142 37.2943 2.0141
D 0 11.7771 1.96286 2.0141
D 0 11.7771 5.88857 2.0141
D 0 11.7771 9.81428 2.0141
D 0 11.7771 13.74 2.0141
D 0 11.7771 17.6657 2.0141
D 0 11.7771 21.5914 2.0141
D 0 11.7771 25.5171 2.0141
D 0 11.7771 29.4428 2.0141
D 0 11.7771 33.3685 2.0141
D 0 11.7771 37.2943 2.0141
D 0 15.7028 1.96286 2.0141
D 0 15.7028 5.88857 2.0141
D 0 15.7028 9.81428 2.0141
D 0 15.7028 13.74 2.0141
D 0 15.7028 17.6657 2.0141
D 0 15.7028 21.5914 2.0141
D 0 15.7028 25.5171 2.0141
D 0 15.7028 29.4428 2.0141
D 0 15.7028 33.3685 2.0141
D 0 15.7028 37.2943 2.0141
D 0 19.6286 1.96286 2.0141
D 0 19.6286 5.88857 2.0141
D 0 19.6286 9.81428 2.0141
D 0 19.6286 13.74 2.0141
D 0 19.6286 17.6657 2.0141
D 0 19.6286 21.5914 2.0141
D 0 19.6286 25.5171 2.0141
D 0 19.6286 29.4428 2.0141
D 0 19.6286 33.3685 2.0141
D 0 19.6286 37.2943 2.0141
D 0 23.5543 1.96286 2.0141
D 0 23.5543 5.88857 2.0141
D 0 23.5543 9.81428 2.0141
D 0 23.5543 13.74 2.0141
D 0 23.5543 17.6657 2.0141
D 0 23.5543 21.5914 2.0141
D 0 23.5543 25.5171 2.0141
D 0 23.5543 29.4428 2.0141
D 0 23.5543 33.3685 2.0141
D 0 23.5543 37.2943 2.0141
D 0 27.48 1.96286 2.0141
D 0 27.48 5.88857 2.0141
D 0 27.48 9.81428 2.0141
D 0 27.48 13.74 2.0141
D 0 27.48 17.6657 2.0141
D 0 27.48 21.5914 2.0141
D 0 27.48 25.5171 2.0141
D 0 27.48 29.4428 2.0141
D 0 27.48 33.3685 2.0141
D 0 27.48 37.2943 2.0141
D 0 31.4057 1.96286 2.0141
D 0 31.4057 5.88857 2.0141
D 0 31.4057 9.81428 2.0141
D 0 31.4057 13.74 2.0141
D 0 31.4057 17.6657 2.0141
D 0 31.4057 21.5914 2.0141
D 0 31.4057 25.5171 2.0141
D 0 31.4057 29.4428 2.0141
D 0 31.4057 33.3685 2.0141
D 0 31.4057 37.2943 2.0141
D 0 35.3314 1.96286 2.0141
D 0 35.3314 5.88857 2.0141
D 0 35.3314 9.81428 2.0141
D 0 35.3314 13.74 2.0141
D 0 35.3314 17.6657 2.0141
D 0 35.3314 21.5914 2.0141
D 0 35.3314 25.5171 2.0141
D 0 35.3314 29.4428 2.0141
D 0 35.3314 33.3685 2.0141
D 0 35.3314 37.2943 2.0141
D 3.92571 0 1.96286 2.0141
D 3.92571 0 5.88857 2.0141
D 3.92571 0 9.81428 2.0141
D 3.92571 0 13.74 2.0141
D 3.92571 0 17.6657 2.0141
D 3.92571 0 21.5914 2.0141
D 3.92571 0 25.5171 2.0141
D 3.92571 0 29.4428 2.0141
D 3.92571 0 33.3685 2.0141
D 3.92571 0 37.2943 2.0141
D 3.92571 3.92571 1.96286 2.0141
D 3.92571 3.92571 5.88857 2.0141
D 3.92571 3.92571 9.81428 2.0141
D 3.92571 3.92571 13.74 2.0141
D 3.92571 3.92571 17.6657 2.0141
D 3.92571 3.92571 21.5914 2.0141
D 3.92571 3.92571 25.5171 2.0141
D 3.92571 3.92571 29.4428 2.0141
D 3.92571 3.92571 33.3685 2.0141
D 3.92571 3.92571 37.2943 2.0141
D 3.92571 7.85142 1.96286 2.0141
D 3.92571 7.85142 5.88857 2.0141
D 3.92571 7.85142 9.81428 2.0141
D 3.92571 7.85142 13.74 2.0141
D 3.92571 7.85142 17.6657 2.0141
D 3.92571 7.85142 21.5914 2.0141
D 3.92571 7.85142 25.5171 2.0141
D 3.92571 7.85142 29.4428 2.0141
D 3.92571 7.85142 33.3685 2.0141
D 3.92571 7.85142 37.2943 2.0141
D 3.92571 11.7771 1.96286 2.0141
D 3.92571 11.7771 5.88857 2.0141
D 3.92571 11.7771 9.81428 2.0141
D 3.92571 11.7771 13.74 2.0141
D 3.92571 11.7771 17.6657 2.0141
D 3.92571 11.7771 21.5914 2.0141
D 3.92571 11.7771 25.5171 2.0141
D 3.92571 11.7771 29.4428 2.0141
D 3.92571 11.7771 33.3685 2.0141
D 3.92571 11.7771 37.2943 2.0141
D 3.92571 15.7028 1.96286 2.0141
D 3.92571 15.7028 5.88857 2.0141
D 3.92571 15.7028 9.81428 2.0141
D 3.92571 15.7028 13.74 2.0141
D 3.92571 15.7028 17.6657 2.0141
D 3.92571 15.7028 21.5914 2.0141
D 3.92571 15.7028 25.5171 2.0141
D 3.92571 15.7028 29.4428 2.0141
D 3.92571 15.7028 33.3685 2.0141
D 3.92571 15.7028 37.2943 2.0141
D 3.92571 19.6286 1.96286 2.0141
D 3.92571 19.6286 5.88857 2.0141
D 3.92571 19.6286 9.81428 2.0141
D 3.92571 19.6286 13.74 2.0141
D 3.92571 19.6286 17.6657 2.0141
D 3.92571 19.6286 21.5914 2.0141
D 3.92571 19.6286 25.5171 2.0141
D 3.92571 19.6286 29.4428 2.0141
D 3.92571 19.6286 33.3685 2.0141
D 3.92571 19.6286 37.2943 2.0141
D 3.92571 23.5543 1.96286 2.0141
D 3.92571 23.5543 5.88857 2.0141
D 3.92571 23.5543 9.81428 2.0141
D 3.92571 23.5543 13.74 2.0141
D 3.92571 23.5543 17.6657 2.0141
D 3.92571 23.5543 21.5914 2.0141
D 3.92571 23.5543 25.5171 2.0141
D 3.92571 23.5543 29.4428 2.0141
D 3.92571 23.5543 33.3685 2.0141
D 3.92571 23.5543 37.2943 2.0141
D 3.92571 27.48 1.96286 2.0141
D 3.92571 27.48 5.88857 2.0141
D 3.92571 27.48 9.81428 2.0141
D 3.92571 27.48 13.74 2.0141
D 3.92571 27.48 17.6657 2.0141
D 3.92571 27.48 21.5914 2.0141
D 3.92571 27.48 25.5171 2.0141
D 3.92571 27.48 29.4428 2.0141
D 3.92571 27.48 33.3685 2.0141
D 3.92571 27.48 37.2943 2.0141
D 3.92571 31.4057 1.96286 2.0141
D 3.92571 31.4057 5.88857 2.0141
D 3.92571 31.4057 9.81428 2.0141
D 3.92571 31.4057 13.74 2.0141
D 3.92571 31.4057 17.6657 2.0141
D 3.92571 31.4057 21.5914 2.0141
D 3.92571 31.4057 25.5171 2.0141
D 3.92571 31.4057 29.4428 2.0141
D 3.92571 31.4057 33.3685 2.0141
D 3.92571 31.4057 37.2943 2.0141
D 3.92571 35.3314 1.96286 2.0141
D 3.92571 35.3314 5.88857 2.0141
D 3.92571 35.3314 9.81428 2.0141
D 3.92571 35.3314 13.74 2.0141
D 3.92571 35.3314 17.6657 2.0141
D 3.92571 35.3314 21.5914 2.0141
D 3.92571 35.3314 25.5171 2.0141
D 3.92571 35.3314 29.4428 2.0141
D 3.92571 35.3314 33.3685 2.0141
D 3.92571 35.3314 37.2943 2.0141
D 7.85142 0 1.96286 2.0141
D 7.85142 0 5.88857 2.0141
D 7.85142 0 9.81428 2.0141
D 7.85142 0 13.74 2.0141
D 7.85142 0 17.6657 2.0141
D 7.85142 0 21.5914 2.0141
D 7.85142 0 25.5171 2.0141
D 7.85142 0 29.4428 2.0141
D 7.85142 0 33.3685 2.0141
D 7.85142 0 37.2943 2.0141
D 7.85142 3.92571 1.96286 2.0141
D 7.85142 3.92571 5.88857 2.0141
D 7.85142 3.92571 9.81428 2.0141
D 7.85142 3.92571 13.74 2.0141
D 7.85142 3.92571 17.6657 2.0141
D 7.85142 3.92571 21.5914 2.0141
D 7.85142 3.92571 25.5171 2.0141
D 7.85142 3.92571 29.4428 2.0141
D 7.85142 3.92571 33.3685 2.0141
D 7.85142 3.92571 37.2943 2.0141
D 7.85142 7.85142 1.96286 2.0141
D 7.85142 7.85142 5.88857 2.0141
D 7.85142 7.85142 9.81428 2.0141
D 7.85142 7.85142 13.74 2.0141
D 7.85142 7.85142 17.6657 2.0141
D 7.85142 7.85142 21.5914 2.0141
D 7.85142 7.85142 25.5171 2.0141
D 7.85142 7.85142 29.4428 2.0141
D 7.85142 7.85142 33.3685 2.0141
D 7.85142 7.85142 37.2943 2.0141
D 7.85142 11.7771 1.96286 2.0141
D 7.85142 11.7771 5.88857 2.0141
D 7.85142 11.7771 9.81428 2.0141
D 7.85142 11.7771 13.74 2.0141
D 7.85142 11.7771 17.6657 2.0141
D 7.85142 11.7771 21.5914 2.0141
D 7.85142 11.7771 25.5171 2.0141
D 7.85142 11.7771 29.4428 2.0141
D 7.85142 11.7771 33.3685 2.0141
D 7.85142 11.7771 37.2943 2.0141
D 7.85142 15.7028 1.96286 2.0141
D 7.85142 15.7028 5.88857 2.0141
D 7.85142 15.7028 9.81428 2.0141
D 7.85142 15.7028 13.74 2.0141
D 7.85142 15.7028 17.6657 2.0141
D 7.85142 15.7028 21.5914 2.0141
D 7.85142 15.7028 25.5171 2.0141
D 7.85142 15.7028 29.4428 2.0141
D 7.85142 15.7028 33.3685 2.0141
D 7.85142 15.7028 37.2943 2.0141
D 7.85142 19.6286 1.96286 2.0141
D 7.85142 19.6286 5.88857 2.0141
D 7.85142 19.6286 9.81428 2.0141
D 7.85142 19.6286 13.74 2.0141
D 7.85142 19.6286 17.6657 2.0141
D 7.85142 19.6286 21.5914 2.0141
D 7.85142 19.6286 25.5171 2.0141
D 7.85142 19.6286 29.4428 2.0141
D 7.85142 19.6286 33.3685 2.0141
D 7.85142 19.6286 37.2943 2.0141
D 7.85142 23.5543 1.96286 2.0141
D 7.85142 23.5543 5.88857 2.0141
D 7.85142 23.5543 9.81428 2.0141
D 7.85142 23.5543 13.74 2.0141
D 7.85142 23.5543 17.6657 2.0141
D 7.85142 23.5543 21.5914 2.0141
D 7.85142 23.5543 25.5171 2.0141
D 7.85142 23.5543 29.4428 2.0141
D 7.85142 23.5543 33.3685 2.0141
D 7.85142 23.5543 37.2943 2.0141
D 7.85142 27.48 1.96286 2.0141
D 7.85142 27.48 5.88857 2.0141
D 7.85142 27.48 9.81428 2.0141
D 7.85142 27.48 13.74 2.0141
D 7.85142 27.48 17.6657 2.0141
D 7.85142 27.48 21.5914 2.0141
D 7.85142 27.48 25.5171 2.0141
D 7.85142 27.48 29.4428 2.0141
D 7.85142 27.48 33.3685 2.0141
D 7.85142 27.48 37.2943 2.0141
D 7.85142 31.4057 1.96286 2.0141
D 7.85142 31.4057 5.88857 2.0141
D 7.85142 31.4057 9.81428 2.0141
D 7.85142 31.4057 13.74 2.0141
D 7.85142 31.4057 17.6657 2.0141
D 7.85142 31.4057 21.5914 2.0141
D 7.85142 31.4057 25.5171 2.0141
D 7.85142 31.4057 29.4428 2.0141
D 7.85142 31.4057 33.3685 2.0141
D 7.85142 31.4057 37.2943 2.0141
D 7.85142 35.3314 1.96286 2.0141
D 7.85142 35.3314 5.88857 2.0141
D 7.85142 35.3314 9.81428 2.0141
D 7.85142 35.3314 13.74 2.0141
D 7.85142 35.3314 17.6657 2.0141
D 7.85142 35.3314 21.5914 2.0141
D 7.85142 35.3314 25.5171 2.0141
D 7.85142 35.3314 29.4428 2.0141
D 7.85142 35.3314 33.3685 2.0141
D 7.85142 35.3314 37.2943 2.0141
D 11.7771 0 1.96286 2.0141
D 11.7771 0 5.88857 2.0141
D 11.7771 0 9.81428 2.0141
D 11.7771 0 13.74 2.0141
D 11.7771 0 17.6657 2.0141
D 11.7771 0 21.5914 2.0141
D 11.7771 0 25.5171 2.0141
D 11.7771 0 29.4428 2.0141
D 11.7771 0 33.3685 2.0141
D 11.7771 0 37.2943 2.0141
D 11.7771 3.92571 1.96286 2.0141
D 11.7771 3.92571 5.88857 2.0141
D 11.7771 3.92571 9.81428 2.0141
D 11.7771 3.92571 13.74 2.0141
D 11.7771 3.92571 17.6657 2.0141
D 11.7771 3.92571 21.5914 2.0141
D 11.7771 3.92571 25.5171 2.0141
D 11.7771 3.92571 29.4428 2.0141
D 11.7771 3.92571 33.3685 2.0141
D 11.7771 3.92571 37.2943 2.0141
D 11.7771 7.85142 1.96286 2.0141
D 11.7771 7.85142 5.88857 2.0141
D 11.7771 7.85142 9.81428 2.0141
D 11.7771 7.85142 13.74 2.0141
D 11.7771 7.85142 17.6657 2.0141
D 11.7771 7.85142 21.5914 2.0141
D 11.7771 7.85142 25.5171 2.0141
D 11.7771 7.85142 29.4428 2.0141
D 11.7771 7.85142 33.3685 2.0141
D 11.7771 7.85142 37.2943 2.0141
D 11.7771 11.7771 1.96286 2.0141
D 11.7771 11.7771 5.88857 2.0141
D 11.7771 11.7771 9.81428 2.0141
D 11.7771 11.7771 13.74 2.0141
D 11.7771 11.7771 17.6657 2.0141
D 11.7771 11.7771 21.5914 2.0141
D 11.7771 11.7771 25.5171 2.0141
D 11.7771 11.7771 29.4428 2.0141
D 11.7771 11.7771 33.3685 2.0141
D 11.7771 11.7771 37.2943 2.0141
D 11.7771 15.7028 1.96286 2.0141
D 11.7771 15.7028 5.88857 2.0141
D 11.7771 15.7028 9.81428 2.0141
D 11.7771 15.7028 13.74 2.0141
D 11.7771 15.7028 17.6657 2.0141
D 11.7771 15.7028 21.5914 2.0141
D 11.7771 15.7028 25.5171 2.0141
D 11.7771 15.7028 29.4428 2.0141
D 11.7771 15.7028 33.3685 2.0141
D 11.7771 15.7028 37.2943 2.0141
D 11.7771 19.6286 1.96286 2.0141
D 11.7771 19.6286 5.88857 2.0141
D 11.7771 19.6286 9.81428 2.0141
D 11.7771 19.6286 13.74 2.0141
D 11.7771 19.6286 17.6657 2.0141
D 11.7771 19.6286 21.5914 2.0141
D 11.7771 19.6286 25.5171 2.0141
D 11.7771 19.6286 29.4428 2.0141
D 11.7771 19.6286 33.3685 2.0141
D 11.7771 19.6286 37.2943 2.0141
D 11.7771 23.5543 1.96286 2.0141
D 11.7771 23.5543 5.88857 2.0141
D 11.7771 23.5543 9.81428 2.0141
D 11.7771 23.5543 13.74 2.0141
D 11.7771 23.5543 17.6657 2.0141
D 11.7771 23.5543 21.5914 2.0141
D 11.7771 23.5543 25.5171 2.0141
D 11.7771 23.5543 29.4428 2.0141
D 11.7771 23.5543 33.3685 2.0141
D 11.7771 23.5543 37.2943 2.0141
D 11.7771 27.48 1.96286 2.0141
D 11.7771 27.48 5.88857 2.0141
D 11.7771 27.48 9.81428 2.0141
D 11.7771 27.48 13.74 2.0141
D 11.7771 27.48 17.6657 2.0141
D 11.7771 27.48 21.5914 2.0141
D 11.7771 27.48 25.5171 2.0141
D 11.7771 27.48 29.4428 2.0141
D 11.7771 27.48 33.3685 2.0141
D 11.7771 27.48 37.2943 2.0141
D 11.7771 31.4057 1.96286 2.0141
D 11.7771 31.4057 5.88857 2.0141
D 11.7771 31.4057 9.81428 2.0141
D 11.7771 31.4057 13.74 2.0141
D 11.7771 31.4057 17.6657 2.0141
D 11.7771 31.4057 21.5914 2.0141
D 11.7771 31.4057 25.5171 2.0141
D 11.7771 31.4057 29.4428 2.0141
D 11.7771 31.4057 33.3685 2.0141
D 11.7771 31.4057 37.2943 2.0141
D 11.7771 35.3314 1.96286 2.0141
D 11.7771 35.3314 5.88857 2.0141
D 11.7771 35.3314 9.81428 2.0141
D 11.7771 35.3314 13.74 2.0141
D 11.7771 35.3314 17.6657 2.0141
D 11.7771 35.3314 21.5914 2.0141
D 11.7771 35.3314 25.5171 2.0141
D 11.7771 35.3314 29.4428 2.0141
D 11.7771 35.3314 33.3685 2.0141
D 11.7771 35.3314 37.2943 2.0141
D 15.7028 0 1.96286 2.0141
D 15.7028 0 5.88857 2.0141
D 15.7028 0 9.81428 2.0141
D 15.7028 0 13.74 2.0141
D 15.7028 0 17.6657 2.0141
D 15.7028 0 21.5914 2.0141
D 15.7028 0 25.5171 2.0141
D 15.7028 0 29.4428 2.0141
D 15.7028 0 33.3685 2.0141
D 15.7028 0 37.2943 2.0141
D 15.7028 3.92571 1.96286 2.0141
D 15.7028 3.92571 5.88857 2.0141
D 15.7028 3.92571 9.81428 2.0141
D 15.7028 3.92571 13.74 2.0141
D 15.7028 3.92571 17.6657 2.0141
D 15.7028 3.92571 21.5914 2.0141
D 15.7028 3.92571 25.5171 2.0141
D 15.7028 3.92571 29.4428 2.0141
D 15.7028 3.92571 33.3685 2.0141
D 15.7028 3.92571 37.2943 2.0141
D 15.7028 7.85142 1.96286 2.0141
D 15.7028 7.85142 5.88857 2.0141
D 15.7028 7.85142 9.81428 2.0141
D 15.7028 7.85142 13.74 2.0141
D 15.7028 7.85142 17.6657 2.0141
D 15.7028 7.85142 21.5914 2.0141
D 15.7028 7.85142 25.5171 2.0141
D 15.7028 7.85142 29.4428 2.0141
D 15.7028 7.85142 33.3685 2.0141
D 15.7028 7.85142 37.2943 2.0141
D 15.7028 11.7771 1.96286 2.0141
D 15.7028 11.7771 5.88857 2.0141
D 15.7028 11.7771 9.81428 2.0141
D 15.7028 11.7771 13.74 2.0141
D 15.7028 11.7771 17.6657 2.0141
D 15.7028 11.7771 21.5914 2.0141
D 15.7028 11.7771 25.5171 2.0141
D 15.7028 11.7771 29.4428 2.0141
D 15.7028 11.7771 33.3685 2.0141
D 15.7028 11.7771 37.2943 2.0141
D 15.7028 15.7028 1.96286 2.0141
D 15.7028 15.7028 5.88857 2.0141
D 15.7028 15.7028 9.81428 2.0141
D 15.7028 15.7028 13.74 2.0141
D 15.7028 15.7028 17.6657 2.0141
D 15.7028 15.7028 21.5914 2.0141
D 15.7028 15.7028 25.5171 2.0141
D 15.7028 15.7028 29.4428 2.0141
D 15.7028 15.7028 33.3685 2.0141
D 15.7028 15.7028 37.2943 2.0141
D 15.7028 19.6286 1.96286 2.0141
D 15.7028 19.6286 5.88857 2.0141
D 15.7028 19.6286 9.81428 2.0141
D 15.7028 19.6286 13.74 2.0141
D 15.7028 19.6286 17.6657 2.0141
D 15.7028 19.6286 21.5914 2.0141
D 15.7028 19.6286 25.5171 2.0141
D 15.7028 19.6286 29.4428 2.0141
D 15.7028 19.6286 33.3685 2.0141
D 15.7028 19.6286 37.2943 2.0141
D 15.7028 23.5543 1.96286 2.0141
D 15.7028 23.5543 5.88857 2.0141
D 15.7028 23.5543 9.81428 2.0141
D 15.7028 23.5543 13.74 2.0141
D 15.7028 23.5543 17.6657 2.0141
D 15.7028 23.5543 21.5914 2.0141
D 15.7028 23.5543 25.5171 2.0141
D 15.7028 23.5543 29.4428 2.0141
D 15.7028 23.5543 33.3685 2.0141
D 15.7028 23.5543 37.2943 2.0141
D 15.7028 27.48 1.96286 2.0141
D 15.7028 27.48 5.88857 2.0141
D 15.7028 27.48 9.81428 2.0141
D 15.7028 27.48 13.74 2.0141
D 15.7028 27.48 17.6657 2.0141
D 15.7028 27.48 21.5914 2.0141
D 15.7028 27.48 25.5171 2.0141
D 15.7028 27.48 29.4428 2.0141
D 15.7028 27.48 33.3685 2.0141
D 15.7028 27.48 37.2943 2.0141
D 15.7028 31.4057 1.96286 2.0141
D 15.7028 31.4057 5.88857 2.0141
D 15.7028 31.4057 9.81428 2.0141
D 15.7028 31.4057 13.74 2.0141
D 15.7028 31.4057 17.6657 2.0141
D 15.7028 31.4057 21.5914 2.0141
D 15.7028 31.4057 25.5171 2.0141
D 15.7028 31.4057 29.4428 2.0141
D 15.7028 31.4057 33.3685 2.0141
D 15.7028 31.4057 37.2943 2.0141
D 15.7028 35.3314 1.96286 2.0141
D 15.7028 35.3314 5.88857 2.0141
D 15.7028 35.3314 9.81428 2.0141
D 15.7028 35.3314 13.74 2.0141
D 15.7028 35.3314 17.6657 2.0141
D 15.7028 35.3314 21.5914 2.0141
D 15.7028 35.3314 25.5171 2.0141
D 15.7028 35.3314 29.4428 2.0141
D 15.7028 35.3314 33.3685 2.0141
D 15.7028 35.3314 37.2943 2.0141
D 19.6286 0 1.96286 2.0141
D 19.6286 0 5.88857 2.0141
D 19.6286 0 9.81428 2.0141
D 19.6286 0 13.74 2.0141
D 19.6286 0 17.6657 2.0141
D 19.6286 0 21.5914 2.0141
D 19.6286 0 25.5171 2.0141
D 19.6286 0 29.4428 2.0141
D 19.6286 0 33.3685 2.0141
D 19.6286 0 37.2943 2.0141
D 19.6286 3.92571 1.96286 2.0141
D 19.6286 3.92571 5.88857 2.0141
D 19.6286 3.92571 9.81428 2.0141
D 19.6286 3.92571 13.74 2.0141
D 19.6286 3.92571 17.6657 2.0141
D 19.6286 3.92571 21.5914 2.0141
D 19.6286 3.92571 25.5171 2.0141
D 19.6286 3.92571 29.4428 2.0141
D 19.6286 3.92571 33.3685 2.0141
D 19.6286 3.92571 37.2943 2.0141
D 19.6286 7.85142 1.96286 2.0141
D 19.6286 7.85142 5.88857 2.0141
D 19.6286 7.85142 9.81428 2.0141
D 19.6286 7.85142 13.74 2.0141
D 19.6286 7.85142 17.6657 2.0141
D 19.6286 7.85142 21.5914 2.0141
D 19.6286 7.85142 25.5171 2.0141
D 19.6286 7.85142 29.4428 2.0141
D 19.6286 7.85142 33.3685 2.0141
D 19.6286 7.85142 37.2943 2.0141
D 19.6286 11.7771 1.96286 2.0141
D 19.6286 11.7771 5.88857 2.0141
D 19.6286 11.7771 9.81428 2.0141
D 19.6286 11.7771 13.74 2.0141
D 19.6286 11.7771 17.6657 2.0141
D 19.6286 11.7771 21.5914 2.0141
D 19.6286 11.7771 25.5171 2.0141
D 19.6286 11.7771 29.4428 2.0141
D 19.6286 11.7771 33.3685 2.0141
D 19.6286 11.7771 37.2943 2.0141
D 19.6286 15.7028 1.96286 2.0141
D 19.6286 15.7028 5.88857 2.0141
D 19.6286 15.7028 9.81428 2.0141
D 19.6286 15.7028 13.74 2.0141
D 19.6286 15.7028 17.6657 2.0141
D 19.6286 15.7028 21.5914 2.0141
D 19.6286 15.7028 25.5171 2.0141
D 19.6286 15.7028 29.4428 2.0141
D 19.6286 15.7028 33.3685 2.0141
D 19.6286 15.7028 37.2943 2.0141
D 19.6286 19.6286 1.96286 2.0141
D 19.6286 19.6286 5.88857 2.0141
D 19.6286 19.6286 9.81428 2.0141
D 19.6286 19.6286 13.74 2.0141
D 19.6286 19.6286 17.6657 2.0141
D 19.6286 19.6286 21.5914 2.0141
D 19.6286 19.6286 25.5171 2.0141
D 19.6286 19.6286 29.4428 2.0141
D 19.6286 19.6286 33.3685 2.0141
D 19.6286 19.6286 37.2943 2.0141
D 19.6286 23.5543 1.96286 2.0141
D 19.6286 23.5543 5.88857 2.0141
D 19.6286 23.5543 9.81428 2.0141
D 19.6286 23.5543 13.74 2.0141
D 19.6286 23.5543 17.6657 2.0141
D 19.6286 23.5543 21.5914 2.0141
D 19.6286 23.5543 25.5171 2.0141
D 19.6286 23.5543 29.4428 2.0141
D 19.6286 23.5543 33.3685 2.0141
D 19.6286 23.5543 37.2943 2.0141
D 19.6286 27.48 1.96286 2.0141
D 19.6286 27.48 5.88857 2.0141
D 19.6286 27.48 9.81428 2.0141
D 19.6286 27.48 13.74 2.0141
D 19.6286 27.48 17.6657 2.0141
D 19.6286 27.48 21.5914 2.0141
D 19.6286 27.48 25.5171 2.0141
D 19.6286 27.48 29.4428 2.0141
D 19.6286 27.48 33.3685 2.0141
D 19.6286 27.48 37.2943 2.0141
D 19.6286 31.4057 1.96286 2.0141
D 19.6286 31.4057 5.88857 2.0141
D 19.6286 31.4057 9.81428 2.0141
D 19.6286 31.4057 13.74 2.0141
D 19.6286 31.4057 17.6657 2.0141
D 19.6286 31.4057 21.5914 2.0141
D 19.6286 31.4057 25.5171 2.0141
D 19.6286 31.4057 29.4428 2.0141
D 19.6286 31.4057 33.3685 2.0141
D 19.6286 31.4057 37.2943 2.0141
D 19.6286 35.3314 1.96286 2.0141
D 19.6286 35.3314 5.88857 2.0141
D 19.6286 35.3314 9.81428 2.0141
D 19.6286 35.3314 13.74 2.0141
D 19.6286 35.3314 17.6657 2.0141
D 19.6286 35.3314 21.5914 2.0141
D 19.6286 35.3314 25.5171 2.0141
D 19.6286 35.3314 29.4428 2.0141
D 19.6286 35.3314 33.3685 2.0141
D 19.6286 35.3314 37.2943 2.0141
D 23.5543 0 1.96286 2.0141
D 23.5543 0 5.88857 2.0141
D 23.5543 0 9.81428 2.0141
D 23.5543 0 13.74 2.0141
D 23.5543 0 17.6657 2.0141
D 23.5543 0 21.5914 2.0141
D 23.5543 0 25.5171 2.0141
D 23.5543 0 29.4428 2.0141
D 23.5543 0 33.3685 2.0141
D 23.5543 0 37.2943 2.0141
D 23.5543 3.92571 1.96286 2.0141
D 23.5543 3.92571 5.88857 2.0141
D 23.5543 3.92571 9.81428 2.0141
D 23.5543 3.92571 13.74 2.0141
D 23.5543 3.92571 17.6657 2.0141
D 23.5543 3.92571 21.5914 2.0141
D 23.5543 3.92571 25.5171 2.0141
D 23.5543 3.92571 29.4428 2.0141
D 23.5543 3.92571 33.3685 2.0141
D 23.5543 3.92571 37.2943 2.0141
D 23.5543 7.85142 1.96286 2.0141
D 23.5543 7.85142 5.88857 2.0141
D 23.5543 7.85142 9.81428 2.0141
D 23.5543 7.85142 13.74 2.0141
D 23.5543 7.85142 17.6657 2.0141
D 23.5543 7.85142 21.5914 2.0141
D 23.5543 7.85142 25.5171 2.0141
D 23.5543 7.85142 29.4428 2.0141
D 23.5543 7.85142 33.3685 2.0141
D 23.5543 7.85142 37.2943 2.0141
D 23.5543 11.7771 1.96286 2.0141
D 23.5543 11.7771 5.88857 2.0141
D 23.5543 11.7771 9.81428 2.0141
D 23.5543 11.7771 13.74 2.0141
D 23.5543 11.7771 17.6657 2.0141
D 23.5543 11.7771 21.5914 2.0141
D 23.5543 11.7771 25.5171 2.0141
D 23.5543 11.7771 29.4428 2.0141
D 23.5543 11.7771 33.3685 2.0141
D 23.5543 11.7771 37.2943 2.0141
D 23.5543 15.7028 1.96286 2.0141
D 23.5543 15.7028 5.88857 2.0141
D 23.5543 15.7028 9.81428 2.0141
D 23.5543 15.7028 13.74 2.0141
D 23.5543 15.7028 17.6657 2.0141
D 23.5543 15.7028 21.5914 2.0141
D 23.5543 15.7028 25.5171 2.0141
D 23.5543 15.7028 29.4428 2.0141
D 23.5543 15.7028 33.3685 2.0141
D 23.5543 15.7028 37.2943 2.0141
D 23.5543 19.6286 1.96286 2.0141
D 23.5543 19.6286 5.88857 2.0141
D 23.5543 19.6286 9.81428 2.0141
D 23.5543 19.6286 13.74 2.0141
D 23.5543 19.6286 17.6657 2.0141
D 23.5543 19.6286 21.5914 2.0141
D 23.5543 19.6286 25.5171 2.0141
D 23.5543 19.6286 29.4428 2.0141
D 23.5543 19.6286 33.3685 2.0141
D 23.5543 19.6286 37.2943 2.0141
D 23.5543 23.5543 1.96286 2.0141
D 23.5543 23.5543 5.88857 2.0141
D 23.5543 23.5543 9.81428 2.0141
D 23.5543 23.5543 13.74 2.0141
D 23.5543 23.5543 17.6657 2.0141
D 23.5543 23.5543 21.5914 2.0141
D 23.5543 23.5543 25.5171 2.0141
D 23.5543 23.5543 29.4428 2.0141
D 23.5543 23.5543 33.3685 2.0141
D 23.5543 23.5543 37.2943 2.0141
D 23.5543 27.48 1.96286 2.0141
D 23.5543 27.48 5.88857 2.0141
D 23.5543 27.48 9.81428 2.0141
D 23.5543 27.48 13.74 2.0141
D 23.5543 27.48 17.6657 2.0141
D 23.5543 27.48 21.5914 2.0141
D 23.5543 27.48 25.5171 2.0141
D 23.5543 27.48 29.4428 2.0141
D 23.5543 27.48 33.3685 2.0141
D 23.5543 27.48 37.2943 2.0141
D 23.5543 31.4057 1.96286 2.0141
D 23.5543 31.4057 5.88857 2.0141
D 23.5543 31.4057 9.81428 2.0141
D 23.5543 31.4057 13.74 2.0141
D 23.5543 31.4057 17.6657 2.0141
D 23.5543 31.4057 21.5914 2.0141
D 23.5543 31.4057 25.5171 2.0141
D 23.5543 31.4057 29.4428 2.0141
D 23.5543 31.4057 33.3685 2.0141
D 23.5543 31.4057 37.2943 2.0141
D 23.5543 35.3314 1.96286 2.0141
D 23.5543 35.3314 5.88857 2.0141
D 23.5543 35.3314 9.81428 2.0141
D 23.5543 35.3314 13.74 2.0141
D 23.5543 35.3314 17.6657 2.0141
D 23.5543 35.3314 21.5914 2.0141
D 23.5543 35.3314 25.5171 2.0141
D 23.5543 35.3314 29.4428 2.0141
D 23.5543 35.3314 33.3685 2.0141
D 23.5543 35.3314 37.2943 2.0141
D 27.48 0 1.96286 2.0141
D 27.48 0 5.88857 2.0141
D 27.48 0 9.81428 2.0141
D 27.48 0 13.74 2.0141
D 27.48 0 17.6657 2.0141
D 27.48 0 21.5914 2.0141
D 27.48 0 25.5171 2.0141
D 27.48 0 29.4428 2.0141
D 27.48 0 33.3685 2.0141
D 27.48 0 37.2943 2.0141
D 27.48 3.92571 1.96286 2.0141
D 27.48 3.92571 5.88857 2.0141
D 27.48 3.92571 9.81428 2.0141
D 27.48 3.92571 13.74 2.0141
D 27.48 3.92571 17.6657 2.0141
D 27.48 3.92571 21.5914 2.0141
D 27.48 3.92571 25.5171 2.0141
D 27.48 3.92571 29.4428 2.0141
D 27.48 3.92571 33.3685 2.0141
D 27.48 3.92571 37.2943 2.0141
D 27.48 7.85142 1.96286 2.0141
D 27.48 7.85142 5.88857 2.0141
D 27.48 7.85142 9.81428 2.0141
D 27.48 7.85142 13.74 2.0141
D 27.48 7.85142 17.6657 2.0141
D 27.48 7.85142 21.5914 2.0141
D 27.48 7.85142 25.5171 2.0141
D 27.48 7.85142 29.4428 2.0141
D 27.48 7.85142 33.3685 2.0141
D 27.48 7.85142 37.2943 2.0141
D 27.48 11.7771 1.96286 2.0141
D 27.48 11.7771 5.88857 2.0141
D 27.48 11.7771 9.81428 2.0141
D 27.48 11.7771 13.74 2.0141
D 27.48 11.7771 17.6657 2.0141
D 27.48 11.7771 21.5914 2.0141
D 27.48 11.7771 25.5171 2.0141
D 27.48 11.7771 29.4428 2.0141
D 27.48 11.7771 33.3685 2.0141
D 27.48 11.7771 37.2943 2.0141
D 27.48 15.7028 1.96286 2.0141
D 27.48 15.7028 5.88857 2.0141
D 27.48 15.7028 9.81428 2.0141
D 27.48 15.7028 13.74 2.0141
D 27.48 15.7028 17.6657 2.0141
D 27.48 15.7028 21.5914 2.0141
D 27.48 15.7028 25.5171 2.0141
D 27.48 15.7028 29.4428 2.0141
D 27.48 15.7028 33.3685 2.0141
D 27.48 15.7028 37.2943 2.0141
D 27.48 19.6286 1.96286 2.0141
D 27.48 19.6286 5.88857 2.0141
D 27.48 19.6286 9.81428 2.0141
D 27.48 19.6286 13.74 2.0141
D 27.48 19.6286 17.6657 2.0141
D 27.48 19.6286 21.5914 2.0141
D 27.48 19.6286 25.5171 2.0141
D 27.48 19.6286 29.4428 2.0141
D 27.48 19.6286 33.3685 2.0141
D 27.48 19.6286 37.2943 2.0141
D 27.48 23.5543 1.96286 2.0141
D 27.48 23.5543 5.88857 2.0141
D 27.48 23.5543 9.81428 2.0141
D 27.48 23.5543 13.74 2.0141
D 27.48 23.5543 17.6657 2.0141
D 27.48 23.5543 21.5914 2.0141
D 27.48 23.5543 25.5171 2.0141
D 27.48 23.5543 29.4428 2.0141
D 27.48 23.5543 33.3685 2.0141
D 27.48 23.5543 37.2943 2.0141
D 27.48 27.48 1.96286 2.0141
D 27.48 27.48 5.88857 2.0141
D 27.48 27.48 9.81428 2.0141
D 27.48 27.48 13.74 2.0141
D 27.48 27.48 17.6657 2.0141
D 27.48 27.48 21.5914 2.0141
D 27.48 27.48 25.5171 2.0141
D 27.48 27.48 29.4428 2.0141
D 27.48 27.48 33.3685 2.0141
D 27.48 27.48 37.2943 2.0141
D 27.48 31.4057 1.96286 2.0141
D 27.48 31.4057 5.88857 2.0141
D 27.48 31.4057 9.81428 2.0141
D 27.48 31.4057 13.74 2.0141
D 27.48 31.4057 17.6657 2.0141
D 27.48 31.4057 21.5914 2.0141
D 27.48 31.4057 25.5171 2.0141
D 27.48 31.4057 29.4428 2.0141
D 27.48 31.4057 33.3685 2.0141
D 27.48 31.4057 37.2943 2.0141
D 27.48 35.3314 1.96286 2.0141
D 27.48 35.3314 5.88857 2.0141
D 27.48 35.3314 9.81428 2.0141
D 27.48 35.3314 13.74 2.0141
D 27.48 35.3314 17.6657 2.0141
D 27.48 35.3314 21.5914 2.0141
D 27.48 35.3314 25.5171 2.0141
D 27.48 35.3314 29.4428 2.0141
D 27.48 35.3314 33.3685 2.0141
D 27.48 35.3314 37.2943 2.0141
D 31.4057 0 1.96286 2.0141
D 31.4057 0 5.88857 2.0141
D 31.4057 0 9.81428 2.0141
D 31.4057 0 13.74 2.0141
D 31.4057 0 17.6657 2.0141
D 31.4057 0 21.5914 2.0141
D 31.4057 0 25.5171 2.0141
D 31.4057 0 29.4428 2.0141
D 31.4057 0 33.3685 2.0141
D 31.4057 0 37.2943 2.0141
D 31.4057 3.92571 1.96286 2.0141
D 31.4057 3.92571 5.88857 2.0141
D 31.4057 3.92571 9.81428 2.0141
D 31.4057 3.92571 13.74 2.0141
D 31.4057 3.92571 17.6657 2.0141
D 31.4057 3.92571 21.5914 2.0141
D 31.4057 3.92571 25.5171 2.0141
D 31.4057 3.92571 29.4428 2.0141
D 31.4057 3.92571 33.3685 2.0141
D 31.4057 3.92571 37.2943 2.0141
D 31.4057 7.85142 1.96286 2.0141
D 31.4057 7.85142 5.88857 2.0141
D 31.4057 7.85142 9.81428 2.0141
D 31.4057 7.85142 13.74 2.0141
D 31.4057 7.85142 17.6657 2.0141
D 31.4057 7.85142 21.5914 2.0141
D 31.4057 7.85142 25.5171 2.0141
D 31.4057 7.85142 29.4428 2.0141
D 31.4057 7.85142 33.3685 2.0141
D 31.4057 7.85142 37.2943 2.0141
D 31.4057 11.7771 1.96286 2.0141
D 31.4057 11.7771 5.88857 2.0141
D 31.4057 11.7771 9.81428 2.0141
D 31.4057 11.7771 13.74 2.0141
D 31.4057 11.7771 17.6657 2.0141
D 31.4057 11.7771 21.5914 2.0141
D 31.4057 11.7771 25.5171 2.0141
D 31.4057 11.7771 29.4428 2.0141
D 31.4057 11.7771 33.3685 2.0141
D 31.4057 11.7771 37.2943 2.0141
D 31.4057 15.7028 1.96286 2.0141
D 31.4057 15.7028 5.88857 2.0141
D 31.4057 15.7028 9.81428 2.0141
D 31.4057 15.7028 13.74 2.0141
D 31.4057 15.7028 17.6657 2.0141
D 31.4057 15.7028 21.5914 2.0141
D 31.4057 15.7028 25.5171 2.0141
D 31.4057 15.7028 29.4428 2.0141
D 31.4057 15.7028 33.3685 2.0141
D 31.4057 15.7028 37.2943 2.0141
D 31.4057 19.6286 1.96286 2.0141
D 31.4057 19.6286 5.88857 2.0141
D 31.4057 19.6286 9.81428 2.0141
D 31.4057 19.6286 13.74 2.0141
D 31.4057 19.6286 17.6657 2.0141
D 31.4057 19.6286 21.5914 2.0141
D 31.4057 19.6286 25.5171 2.0141
D 31.4057 19.6286 29.4428 2.0141
D 31.4057 19.6286 33.3685 2.0141
D 31.4057 19.6286 37.2943 2.0141
D 31.4057 23.5543 1.96286 2.0141
D 31.4057 23.5543 5.88857 2.0141
D 31.4057 23.5543 9.81428 2.0141
D 31.4057 23.5543 13.74 2.0141
D 31.4057 23.5543 17.6657 2.0141
D 31.4057 23.5543 21.5914 2.0141
D 31.4057 23.5543 25.5171 2.0141
D 31.4057 23.5543 29.4428 2.0141
D 31.4057 23.5543 33.3685 2.0141
D 31.4057 23.5543 37.2943 2.0141
D 31.4057 27.48 1.96286 2.0141
D 31.4057 27.48 5.88857 2.0141
D 31.4057 27.48 9.81428 2.0141
D 31.4057 27.48 13.74 2.0141
D 31.4057 27.48 17.6657 2.0141
D 31.4057 27.48 21.5914 2.0141
D 31.4057 27.48 25.5171 2.0141
D 31.4057 27.48 29.4428 2.0141
D 31.4057 27.48 33.3685 2.0141
D 31.4057 27.48 37.2943 2.0141
D 31.4057 31.4057 1.96286 2.0141
D 31.4057 31.4057 5.88857 2.0141
D 31.4057 31.4057 9.81428 2.0141
D 31.4057 31.4057 13.74 2.0141
D 31.4057 31.4057 17.6657 2.0141
D 31.4057 31.4057 21.5914 2.0141
D 31.4057 31.4057 25.5171 2.0141
D 31.4057 31.4057 29.4428 2.0141
D 31.4057 31.4057 33.3685 2.0141
D 31.4057 31.4057 37.2943 2.0141
D 31.4057 35.3314 1.96286 2.0141
D 31.4057 35.3314 5.88857 2.0141
D 31.4057 35.3314 9.81428 2.0141
D 31.4057 35.3314 13.74 2.0141
D 31.4057 35.3314 17.6657 2.0141
D 31.4057 35.3314 21.5914 2.0141
D 31.4057 35.3314 25.5171 2.0141
D 31.4057 35.3314 29.4428 2.0141
D 31.4057 35.3314 33.3685 2.0141
D 31.4057 35.3314 37.2943 2.0141
D 35.3314 0 1.96286 2.0141
D 35.3314 0 5.88857 2.0141
D 35.3314 0 9.81428 2.0141
D 35.3314 0 13.74 2.0141
D 35.3314 0 17.6657 2.0141
D 35.3314 0 21.5914 2.0141
D 35.3314 0 25.5171 2.0141
D 35.3314 0 29.4428 2.0141
D 35.3314 0 33.3685 2.0141
D 35.3314 0 37.2943 2.0141
D 35.3314 3.92571 1.96286 2.0141
D 35.3314 3.92571 5.88857 2.0141
D 35.3314 3.92571 9.81428 2.0141
D 35.3314 3.92571 13.74 2.0141
D 35.3314 3.92571 17.6657 2.0141
D 35.3314 3.92571 21.5914 2.0141
D 35.3314 3.92571 25.5171 2.0141
D 35.3314 3.92571 29.4428 2.0141
D 35.3314 3.92571 33.3685 2.0141
D 35.3314 3.92571 37.2943 2.0141
D 35.3314 7.85142 1.96286 2.0141
D 35.3314 7.85142 5.88857 2.0141
D 35.3314 7.85142 9.81428 2.0141
D 35.3314 7.85142 13.74 2.0141
D 35.3314 7.85142 17.6657 2.0141
D 35.3314 7.85142 21.5914 2.0141
D 35.3314 7.85142 25.5171 2.0141
D 35.3314 7.85142 29.4428 2.0141
D 35.3314 7.85142 33.3685 2.0141
D 35.3314 7.85142 37.2943 2.0141
D 35.3314 11.7771 1.96286 2.0141
D 35.3314 11.7771 5.88857 2.0141
D 35.3314 11.7771 9.81428 2.0141
D 35.3314 11.7771 13.74 2.0141
D 35.3314 11.7771 17.6657 2.0141
D 35.3314 11.7771 21.5914 2.0141
D 35.3314 11.7771 25.5171 2.0141
D 35.3314 11.7771 29.4428 2.0141
D 35.3314 11.7771 33.3685 2.0141
D 35.3314 11.7771 37.2943 2.0141
D 35.3314 15.7028 1.96286 2.0141
D 35.3314 15.7028 5.88857 2.0141
D 35.3314 15.7028 9.81428 2.0141
D 35.3314 15.7028 13.74 2.0141
D 35.3314 15.7028 17.6657 2.0141
D 35.3314 15.7028 21.5914 2.0141
D 35.3314 15.7028 25.5171 2.0141
D 35.3314 15.7028 29.4428 2.0141
D 35.3314 15.7028 33.3685 2.0141
D 35.3314 15.7028 37.2943 2.0141
D 35.3314 19.6286 1.96286 2.0141
D 35.3314 19.6286 5.88857 2.0141
D 35.3314 19.6286 9.81428 2.0141
D 35.3314 19.6286 13.74 2.0141
D 35.3314 19.6286 17.6657 2.0141
D 35.3314 19.6286 21.5914 2.0141
D 35.3314 19.6286 25.5171 2.0141
D 35.3314 19.6286 29.4428 2.0141
D 35.3314 19.6286 33.3685 2.0141
D 35.3314 19.6286 37.2943 2.0141
D 35.3314 23.5543 1.96286 2.0141
D 35.3314 23.5543 5.88857 2.0141
D 35.3314 23.5543 9.81428 2.0141
D 35.3314 23.5543 13.74 2.0141
D 35.3314 23.5543 17.6657 2.0141
D 35.3314 23.5543 21.5914 2.0141
D 35.3314 23.5543 25.5171 2.0141
D 35.3314 23.5543 29.4428 2.0141
D 35.3314 23.5543 33.3685 2.0141
D 35.3314 23.5543 37.2943 2.0141
D 35.3314 27.48 1.96286 2.0141
D 35.3314 27.48 5.88857 2.0141
D 35.3314 27.48 9.81428 2.0141
D 35.3314 27.48 13.74 2.0141
D 35.3314 27.48 17.6657 2.0141
D 35.3314 27.48 21.5914 2.0141
D 35.3314 27.48 25.5171 2.0141
D 35.3314 27.48 29.4428 2.0141
D 35.3314 27.48 33.3685 2.0141
D 35.3314 27.48 37.2943 2.0141
D 35.3314 31.4057 1.96286 2.0141
D 35.3314 31.4057 5.88857 2.0141
D 35.3314 31.4057 9.81428 2.0141
D 35.3314 31.4057 13.74 2.0141
D 35.3314 31.4057 17.6657 2.0141
D 35.3314 31.4057 21.5914 2.0141
D 35.3314 31.4057 25.5171 2.0141
D 35.3314 31.4057 29.4428 2.0141
D 35.3314 31.4057 33.3685 2.0141
D 35.3314 31.4057 37.2943 2.0141
D 35.3314 35.3314 1.96286 2.0141
D 35.3314 35.3314 5.88857 2.0141
D 35.3314 35.3314 9.81428 2.0141
D 35.3314 35.3314 13.74 2.0141
D 35.3314 35.3314 17.6657 2.0141
D 35.3314 35.3314 21.5914 2.0141
D 35.3314 35.3314 25.5171 2.0141
D 35.3314 35.3314 29.4428 2.0141
D 35.3314 35.3314 33.3685 2.0141
D 35.3314 35.3314 37.2943 2.0141
D 0 1.96286 0 2.0141
D 0 1.96286 3.92571 2.0141
D 0 1.96286 7.85142 2.0141
D 0 1.96286 11.7771 2.0141
D 0 1.96286 15.7028 2.0141
D 0 1.96286 19.6286 2.0141
D 0 1.96286 23.5543 2.0141
D 0 1.96286 27.48 2.0141
D 0 1.96286 31.4057 2.0141
D 0 1.96286 35.3314 2.0141
D 0 5.88857 0 2.0141
D 0 5.88857 3.92571 2.0141
D 0 5.88857 7.85142 2.0141
D 0 5.88857 11.7771 2.0141
D 0 5.88857 15.7028 2.0141
D 0 5.88857 19.6286 2.0141
D 0 5.88857 23.5543 2.0141
D 0 5.88857 27.48 2.0141
D 0 5.88857 31.4057 2.0141
D 0 5.88857 35.3314 2.0141
D 0 9.81428 0 2.0141
D 0 9.81428 3.92571 2.0141
D 0 9.81428 7.85142 2.0141
D 0 9.81428 11.7771 2.0141
D 0 9.81428 15.7028 2.0141
D 0 9.81428 19.6286 2.0141
D 0 9.81428 23.5543 2.0141
D 0 9.81428 27.48 2.0141
D 0 9.81428 31.4057 2.0141
D 0 9.81428 35.3314 2.0141
D 0 13.74 0 2.0141
D 0 13.74 3.92571 2.0141
D 0 13.74 7.85142 2.0141
D 0 13.74 11.7771 2.0141
D 0 13.74 15.7028 2.0141
D 0 13.74 19.6286 2.0141
D 0 13.74 23.5543 2.0141
D 0 13.74 27.48 2.0141
D 0 13.74 31.4057 2.0141
D 0 13.74 35.3314 2.0141
D 0 17.6657 0 2.0141
D 0 17.6657 3.92571 2.0141
D 0 17.6657 7.85142 2.0141
D 0 17.6657 11.7771 2.0141
D 0 17.6657 15.7028 2.0141
D 0 17.6657 19.6286 2.0141
D 0 17.6657 23.5543 2.0141
D 0 17.6657 27.48 2.0141
D 0 17.6657 31.4057 2.0141
D 0 17.6657 35.3314 2.0141
D 0 21.5914 0 2.0141
D 0 21.5914 3.92571 2.0141
D 0 21.5914 7.85142 2.0141
D 0 21.5914 11.7771 2.0141
D 0 21.5914 15.7028 2.0141
D 0 21.5914 19.6286 2.0141
D 0 21.5914 23.5543 2.0141
D 0 21.5914 27.48 2.0141
D 0 21.5914 31.4057 2.0141
D 0 21.5914 35.3314 2.0141
D 0 25.5171 0 2.0141
D 0 25.5171 3.92571 2.0141
D 0 25.5171 7.85142 2.0141
D 0 25.5171 11.7771 2.0141
D 0 25.5171 15.7028 2.0141
D 0 25.5171 19.6286 2.0141
D 0 25.5171 23.5543 2.0141
D 0 25.5171 27.48 2.0141
D 0 25.5171 31.4057 2.0141
D 0 25.5171 35.3314 2.0141
D 0 29.4428 0 2.0141
D 0 29.4428 3.92571 2.0141
D 0 29.4428 7.85142 2.0141
D 0 29.4428 11.7771 2.0141
D 0 29.4428 15.7028 2.0141
D 0 29.4428 19.6286 2.0141
D 0 29.4428 23.5543 2.0141
D 0 29.4428 27.48 2.0141
D 0 29.4428 31.4057 2.0141
D 0 29.4428 35.3314 2.0141
D 0 33.3685 0 2.0141
D 0 33.3685 3.92571 2.0141
D 0 33.3685 7.85142 2.0141
D 0 33.3685 11.7771 2.0141
D 0 33.3685 15.7028 2.0141
D 0 33.3685 19.6286 2.0141
D 0 33.3685 23.5543 2.0141
D 0 33.3685 27.48 2.0141
D 0 33.3685 31.4057 2.0141
D 0 33.3685 35.3314 2.0141
D 0 37.2943 0 2.0141
D 0 37.2943 3.92571 2.0141
D 0 37.2943 7.85142 2.0141
D 0 37.2943 11.7771 2.0141
D 0 37.2943 15.7028 2.0141
D 0 37.2943 19.6286 2.0141
D 0 37.2943 23.5543 2.0141
D 0 37.2943 27.48 2.0141
D 0 37.2943 31.4057 2.0141
D 0 37.2943 35.3314 2.0141
D 3.92571 1.96286 0 2.0141
D 3.92571 1.96286 3.92571 2.0141
D 3.92571 1.96286 7.85142 2.0141
D 3.92571 1.96286 11.7771 2.0141
D 3.92571 1.96286 15.7028 2.0141
D 3.92571 1.96286 19.6286 2.0141
D 3.92571 1.96286 23.5543 2.0141
D 3.92571 1.96286 27.48 2.0141
D 3.92571 1.96286 31.4057 2.0141
D 3.92571 1.96286 35.3314 2.0141
D 3.92571 5.88857 0 2.0141
D 3.92571 5.88857 3.92571 2.0141
D 3.92571 5.88857 7.85142 2.0141
D 3.92571 5.88857 11.7771 2.0141
D 3.92571 5.88857 15.7028 2.0141
D 3.92571 5.88857 19.6286 2.0141
D 3.92571 5.88857 23.5543 2.0141
D 3.92571 5.88857 27.48 2.0141
D 3.92571 5.88857 31.4057 2.0141
D 3.92571 5.88857 35.3314 2.0141
D 3.92571 9.81428 0 2.0141
D 3.92571 9.81428 3.92571 2.0141
D 3.92571 9.81428 7.85142 2.0141
D 3.92571 9.81428 11.7771 2.0141
D 3.92571 9.81428 15.7028 2.0141
D 3.92571 9.81428 19.6286 2.0141
D 3.92571 9.81428 23.5543 2.0141
D 3.92571 9.81428 27.48 2.0141
D 3.92571 9.81428 31.4057 2.0141
D 3.92571 9.81428 35.3314 2.0141
D 3.92571 13.74 0 2.0141
D 3.92571 13.74 3.92571 2.0141
D 3.92571 13.74 7.85142 2.0141
D 3.92571 13.74 11.7771 2.0141
D 3.92571 13.74 15.7028 2.0141
D 3.92571 13.74 19.6286 2.0141
D 3.92571 13.74 23.5543 2.0141
D 3.92571 13.74 27.48 2.0141
D 3.92571 13.74 31.4057 2.0141
D 3.92571 13.74 35.3314 2.0141
D 3.92571 17.6657 0 2.0141
D 3.92571 17.6657 3.92571 2.0141
D 3.92571 17.6657 7.85142 2.0141
D 3.92571 17.6657 11.7771 2.0141
D 3.92571 17.6657 15.7028 2.0141
D 3.92571 17.6657 19.6286 2.0141
D 3.92571 17.6657 23.5543 2.0141
D 3.92571 17.6657 27.48 2.0141
D 3.92571 17.6657 31.4057 2.0141
D 3.92571 17.6657 35.3314 2.0141
D 3.92571 21.5914 0 2.0141
D 3.92571 21.5914 3.92571 2.0141
D 3.92571 21.5914 7.85142 2.0141
D 3.92571 21.5914 11.7771 2.0141
D 3.92571 21.5914 15.7028 2.0141
D 3.92571 21.5914 19.6286 2.0141
D 3.92571 21.5914 23.5543 2.0141
D 3.92571 21.5914 27.48 2.0141
D 3.92571 21.5914 31.4057 2.0141
D 3.92571 21.5914 35.3314 2.0141
D 3.92571 25.5171 0 2.0141
D 3.92571 25.5171 3.92571 2.0141
D 3.92571 25.5171 7.85142 2.0141
D 3.92571 25.5171 11.7771 2.0141
D 3.92571 25.5171 15.7028 2.0141
D 3.92571 25.5171 19.6286 2.0141
D 3.92571 25.5171 23.5543 2.0141
D 3.92571 25.5171 27.48 2.0141
D 3.92571 25.5171 31.4057 2.0141
D 3.92571 25.5171 35.3314 2.0141
D 3.92571 29.4428 0 2.0141
D 3.92571 29.4428 3.92571 2.0141
D 3.92571 29.4428 7.85142 2.0141
D 3.92571 29.4428 11.7771 2.0141
D 3.92571 29.4428 15.7028 2.0141
D 3.92571 29.4428 19.6286 2.0141
D 3.92571 29.4428 23.5543 2.0141
D 3.92571 29.4428 27.48 2.0141
D 3.92571 29.4428 31.4057 2.0141
D 3.92571 29.4428 35.3314 2.0141
D 3.92571 33.3685 0 2.0141
D 3.92571 33.3685 3.92571 2.0141
D 3.92571 33.3685 7.85142 2.0141
D 3.92571 33.3685 11.7771 2.0141
D 3.92571 33.3685 15.7028 2.0141
D 3.92571 33.3685 19.6286 2.0141
D 3.92571 33.3685 23.5543 2.0141
D 3.92571 33.3685 27.48 2.0141
D 3.92571 33.3685 31.4057 2.0141
D 3.92571 33.3685 35.3314 2.0141
D 3.92571 37.2943 0 2.0141
D 3.92571 37.2943 3.92571 2.0141
D 3.92571 37.2943 7.85142 2.0141
D 3.92571 37.2943 11.7771 2.0141
D 3.92571 37.2943 15.7028 2.0141
D 3.92571 37.2943 19.6286 2.0141
D 3.92571 37.2943 23.5543 2.0141
D 3.92571 37.2943 27.48 2.0141
D 3.92571 37.2943 31.4057 2.0141
D 3.92571 37.2943 35.3314 2.0141
D 7.85142 1.96286 0 2.0141
D 7.85142 1.96286 3.92571 2.0141
D 7.85142 1.96286 7.85142 2.0141
D 7.85142 1.96286 11.7771 2.0141
D 7.85142 1.96286 15.7028 2.0141
D 7.85142 1.96286 19.6286 2.0141
D 7.85142 1.96286 23.5543 2.0141
D 7.85142 1.96286 27.48 2.0141
D 7.85142 1.96286 31.4057 2.0141
D 7.85142 1.96286 35.3314 2.0141
D 7.85142 5.88857 0 2.0141
D 7.85142 5.88857 3.92571 2.0141
D 7.85142 5.88857 7.85142 2.0141
D 7.85142 5.88857 11.7771 2.0141
D 7.85142 5.88857 15.7028 2.0141
D 7.85142 5.88857 19.6286 2.0141
D 7.85142 5.88857 23.5543 2.0141
D 7.85142 5.88857 27.48 2.0141
D 7.85142 5.88857 31.4057 2.0141
D 7.85142 5.88857 35.3314 2.0141
D 7.85142 9.81428 0 2.0141
D 7.85142 9.81428 3.92571 2.0141
D 7.85142 9.81428 7.85142 2.0141
D 7.85142 9.81428 11.7771 2.0141
D 7.85142 9.81428 15.7028 2.0141
D 7.85142 9.81428 19.6286 2.0141
D 7.85142 9.81428 23.5543 2.0141
D 7.85142 9.81428 27.48 2.0141
D 7.85142 9.81428 31.4057 2.0141
D 7.85142 9.81428 35.3314 2.0141
D 7.85142 13.74 0 2.0141
D 7.85142 13.74 3.92571 2.0141
D 7.85142 13.74 7.85142 2.0141
D 7.85142 13.74 11.7771 2.0141
D 7.85142 13.74 15.7028 2.0141
D 7.85142 13.74 19.6286 2.0141
D 7.85142 13.74 23.5543 2.0141
D 7.85142 13.74 27.48 2.0141
D 7.85142 13.74 31.4057 2.0141
D 7.85142 13.74 35.3314 2.0141
D 7.85142 17.6657 0 2.0141
D 7.85142 17.6657 3.92571 2.0141
D 7.85142 17.6657 7.85142 2.0141
D 7.85142 17.6657 11.7771 2.0141
D 7.85142 17.6657 15.7028 2.0141
D 7.85142 17.6657 19.6286 2.0141
D 7.85142 17.6657 23.5543 2.0141
D 7.85142 17.6657 27.48 2.0141
D 7.85142 17.6657 31.4057 2.0141
D 7.85142 17.6657 35.3314 2.0141
D 7.85142 21.5914 0 2.0141
D 7.85142 21.5914 3.92571 2.0141
D 7.85142 21.5914 7.85142 2.0141
D 7.85142 21.5914 11.7771 2.0141
D 7.85142 21.5914 15.7028 2.0141
D 7.85142 21.5914 19.6286 2.0141
D 7.85142 21.5914 23.5543 2.0141
D 7.85142 21.5914 27.48 2.0141
D 7.85142 21.5914 31.4057 2.0141
D 7.85142 21.5914 35.3314 2.0141
D 7.85142 25.5171 0 2.0141
D 7.85142 25.5171 3.92571 2.0141
D 7.85142 25.5171 7.85142 2.0141
D 7.85142 25.5171 11.7771 2.0141
D 7.85142 25.5171 15.7028 2.0141
D 7.85142 25.5171 19.6286 2.0141
D 7.85142 25.5171 23.5543 2.0141
D 7.85142 25.5171 27.48 2.0141
D 7.85142 25.5171 31.4057 2.0141
D 7.85142 25.5171 35.3314 2.0141
D 7.85142 29.4428 0 2.0141
D 7.85142 29.4428 3.92571 2.0141
D 7.85142 29.4428 7.85142 2.0141
D 7.85142 29.4428 11.7771 2.0141
D 7.85142 29.4428 15.7028 2.0141
D 7.85142 29.4428 19.6286 2.0141
D 7.85142 29.4428 23.5543 2.0141
D 7.85142 29.4428 27.48 2.0141
D 7.85142 29.4428 31.4057 2.0141
D 7.85142 29.4428 35.3314 2.0141
D 7.85142 33.3685 0 2.0141
D 7.85142 33.3685 3.92571 2.0141
D 7.85142 33.3685 7.85142 2.0141
D 7.85142 33.3685 11.7771 2.0141
D 7.85142 33.3685 15.7028 2.0141
D 7.85142 33.3685 19.6286 2.0141
D 7.85142 33.3685 23.5543 2.0141
D 7.85142 33.3685 27.48 2.0141
D 7.85142 33.3685 31.4057 2.0141
D 7.85142 33.3685 35.3314 2.0141
D 7.85142 37.2943 0 2.0141
D 7.85142 37.2943 3.92571 2.0141
D 7.85142 37.2943 7.85142 2.0141
D 7.85142 37.2943 11.7771 2.0141
D 7.85142 37.2943 15.7028 2.0141
D 7.85142 37.2943 19.6286 2.0141
D 7.85142 37.2943 23.5543 2.0141
D 7.85142 37.2943 27.48 2.0141
D 7.85142 37.2943 31.4057 2.0141
D 7.85142 37.2943 35.3314 2.0141
D 11.7771 1.96286 0 2.0141
D 11.7771 1.96286 3.92571 2.0141
D 11.7771 1.96286 7.85142 2.0141
D 11.7771 1.96286 11.7771 2.0141
D 11.7771 1.96286 15.7028 2.0141
D 11.7771 1.96286 19.6286 2.0141
D 11.7771 1.96286 23.5543 2.0141
D 11.7771 1.96286 27.48 2.0141
D 11.7771 1.96286 31.4057 2.0141
D 11.7771 1.96286 35.3314 2.0141
D 11.7771 5.88857 0 2.0141
D 11.7771 5.88857 3.92571 2.0141
D 11.7771 5.88857 7.85142 2.0141
D 11.7771 5.88857 11.7771 2.0141
D 11.7771 5.88857 15.7028 2.0141
D 11.7771 5.88857 19.6286 2.0141
D 11.7771 5.88857 23.5543 2.0141
D 11.7771 5.88857 27.48 2.0141
D 11.7771 5.88857 31.4057 2.0141
D 11.7771 5.88857 35.3314 2.0141
D 11.7771 9.81428 0 2.0141
D 11.7771 9.81428 3.92571 2.0141
D 11.7771 9.81428 7.85142 2.0141
D 11.7771 9.81428 11.7771 2.0141
D 11.7771 9.81428 15.7028 2.0141
D 11.7771 9.81428 19.6286 2.0141
D 11.7771 9.81428 23.5543 2.0141
D 11.7771 9.81428 27.48 2.0141
D 11.7771 9.81428 31.4057 2.0141
D 11.7771 9.81428 35.3314 2.0141
D 11.7771 13.74 0 2.0141
D 11.7771 13.74 3.92571 2.0141
D 11.7771 13.74 7.85142 2.0141
D 11.7771 13.74 11.7771 2.0141
D 11.7771 13.74 15.7028 2.0141
D 11.7771 13.74 19.6286 2.0141
D 11.7771 13.74 23.5543 2.0141
D 11.7771 13.74 27.48 2.0141
D 11.7771 13.74 31.4057 2.0141
D 11.7771 13.74 35.3314 2.0141
D 11.7771 17.6657 0 2.0141
D 11.7771 17.6657 3.92571 2.0141
D 11.7771 17.6657 7.85142 2.0141
D 11.7771 17.6657 11.7771 2.0141
D 11.7771 17.6657 15.7028 2.0141
D 11.7771 17.6657 19.6286 2.0141
D 11.7771 17.6657 23.5543 2.0141
D 11.7771 17.6657 27.48 2.0141
D 11.7771 17.6657 31.4057 2.0141
D 11.7771 17.6657 35.3314 2.0141
D 11.7771 21.5914 0 2.0141
D 11.7771 21.5914 3.92571 2.0141
D 11.7771 21.5914 7.85142 2.0141
D 11.7771 21.5914 11.7771 2.0141
D 11.7771 21.5914 15.7028 2.0141
D 11.7771 21.5914 19.6286 2.0141
D 11.7771 21.5914 23.5543 2.0141
D 11.7771 21.5914 27.48 2.0141
D 11.7771 21.5914 31.4057 2.0141
D 11.7771 21.5914 35.3314 2.0141
D 11.7771 25.5171 0 2.0141
D 11.7771 25.5171 3.92571 2.0141
D 11.7771 25.5171 7.85142 2.0141
D 11.7771 25.5171 11.7771 2.0141
D 11.7771 25.5171 15.7028 2.0141
D 11.7771 25.5171 19.6286 2.0141
D 11.7771 25.5171 23.5543 2.0141
D 11.7771 25.5171 27.48 2.0141
D 11.7771 25.5171 31.4057 2.0141
D 11.7771 25.5171 35.3314 2.0141
D 11.7771 29.4428 0 2.0141
D 11.7771 29.4428 3.92571 2.0141
D 11.7771 29.4428 7.85142 2.0141
D 11.7771 29.4428 11.7771 2.0141
D 11.7771 29.4428 15.7028 2.0141
D 11.7771 29.4428 19.6286 2.0141
D 11.7771 29.4428 23.5543 2.0141
D 11.7771 29.4428 27.48 2.0141
D 11.7771 29.4428 31.4057 2.0141
D 11.7771 29.4428 35.3314 2.0141
D 11.7771 33.3685 0 2.0141
D 11.7771 33.3685 3.92571 2.0141
D 11.7771 33.3685 7.85142 2.0141
D 11.7771 33.3685 11.7771 2.0141
D 11.7771 33.3685 15.7028 2.0141
D 11.7771 33.3685 19.6286 2.0141
D 11.7771 33.3685 23.5543 2.0141
D 11.7771 33.3685 27.48 2.0141
D 11.7771 33.3685 31.4057 2.0141
D 11.7771 33.3685 35.3314 2.0141
D 11.7771 37.2943 0 2.0141
D 11.7771 37.2943 3.92571 2.0141
D 11.7771 37.2943 7.85142 2.0141
D 11.7771 37.2943 11.7771 2.0141
D 11.7771 37.2943 15.7028 2.0141
D 11.7771 37.2943 19.6286 2.0141
D 11.7771 37.2943 23.5543 2.0141
D 11.7771 37.2943 27.48 2.0141
D 11.7771 37.2943 31.4057 2.0141
D 11.7771 37.2943 35.3314 2.0141
D 15.7028 1.96286 0 2.0141
D 15.7028 1.96286 3.92571 2.0141
D 15.7028 1.96286 7.85142 2.0141
D 15.7028 1.96286 11.7771 2.0141
D 15.7028 1.96286 15.7028 2.0141
D 15.7028 1.96286 19.6286 2.0141
D 15.7028 1.96286 23.5543 2.0141
D 15.7028 1.96286 27.48 2.0141
D 15.7028 1.96286 31.4057 2.0141
D 15.7028 1.96286 35.3314 2.0141
D 15.7028 5.88857 0 2.0141
D 15.7028 5.88857 3.92571 2.0141
D 15.7028 5.88857 7.85142 2.0141
D 15.7028 5.88857 11.7771 2.0141
D 15.7028 5.88857 15.7028 2.0141
D 15.7028 5.88857 19.6286 2.0141
D 15.7028 5.88857 23.5543 2.0141
D 15.7028 5.88857 27.48 2.0141
D 15.7028 5.88857 31.4057 2.0141
D 15.7028 5.88857 35.3314 2.0141
D 15.7028 9.81428 0 2.0141
D 15.7028 9.81428 3.92571 2.0141
D 15.7028 9.81428 7.85142 2.0141
D 15.7028 9.81428 11.7771 2.0141
D 15.7028 9.81428 15.7028 2.0141
D 15.7028 9.81428 19.6286 2.0141
D 15.7028 9.81428 23.5543 2.0141
D 15.7028 9.81428 27.48 2.0141
D 15.7028 9.81428 31.4057 2.0141
D 15.7028 9.81428 35.3314 2.0141
D 15.7028 13.74 0 2.0141
D 15.7028 13.74 3.92571 2.0141
D 15.7028 13.74 7.85142 2.0141
D 15.7028 13.74 11.7771 2.0141
D 15.7028 13.74 15.7028 2.0141
D 15.7028 13.74 19.6286 2.0141
D 15.7028 13.74 23.5543 2.0141
D 15.7028 13.74 27.48 2.0141
D 15.7028 13.74 31.4057 2.0141
D 15.7028 13.74 35.3314 2.0141
D 15.7028 17.6657 0 2.0141
D 15.7028 17.6657 3.92571 2.0141
D 15.7028 17.6657 7.85142 2.0141
D 15.7028 17.6657 11.7771 2.0141
D 15.7028 17.6657 15.7028 2.0141
D 15.7028 17.6657 19.6286 2.0141
D 15.7028 17.6657 23.5543 2.0141
D 15.7028 17.6657 27.48 2.0141
D 15.7028 17.6657 31.4057 2.0141
D 15.7028 17.6657 35.3314 2.0141
D 15.7028 21.5914 0 2.0141
D 15.7028 21.5914 3.92571 2.0141
D 15.7028 21.5914 7.85142 2.0141
D 15.7028 21.5914 11.7771 2.0141
D 15.7028 21.5914 15.7028 2.0141
D 15.7028 21.5914 19.6286 2.0141
D 15.7028 21.5914 23.5543 2.0141
D 15.7028 21.5914 27.48 2.0141
D 15.7028 21.5914 31.4057 2.0141
D 15.7028 21.5914 35.3314 2.0141
D 15.7028 25.5171 0 2.0141
D 15.7028 25.5171 3.92571 2.0141
D 15.7028 25.5171 7.85142 2.0141
D 15.7028 25.5171 11.7771 2.0141
D 15.7028 25.5171 15.7028 2.0141
D 15.7028 25.5171 19.6286 2.0141
D 15.7028 25.5171 23.5543 2.0141
D 15.7028 25.5171 27.48 2.0141
D 15.7028 25.5171 31.4057 2.0141
D 15.7028 25.5171 35.3314 2.0141
D 15.7028 29.4428 0 2.0141
D 15.7028 29.4428 3.92571 2.0141
D 15.7028 29.4428 7.85142 2.0141
D 15.7028 29.4428 11.7771 2.0141
D 15.7028 29.4428 15.7028 2.0141
D 15.7028 29.4428 19.6286 2.0141
D 15.7028 29.4428 23.5543 2.0141
D 15.7028 29.4428 27.48 2.0141
D 15.7028 29.4428 31.4057 2.0141
D 15.7028 29.4428 35.3314 2.0141
D 15.7028 33.3685 0 2.0141
D 15.7028 33.3685 3.92571 2.0141
D 15.7028 33.3685 7.85142 2.0141
D 15.7028 33.3685 11.7771 2.0141
D 15.7028 33.3685 15.7028 2.0141
D 15.7028 33.3685 19.6286 2.0141
D 15.7028 33.3685 23.5543 2.0141
D 15.7028 33.3685 27.48 2.0141
D 15.7028 33.3685 31.4057 2.0141
D 15.7028 33.3685 35.3314 2.0141
D 15.7028 37.2943 0 2.0141
D 15.7028 37.2943 3.92571 2.0141
D 15.7028 37.2943 7.85142 2.0141
D 15.7028 37.2943 11.7771 2.0141
D 15.7028 37.2943 15.7028 2.0141
D 15.7028 37.2943 19.6286 2.0141
D 15.7028 37.2943 23.5543 2.0141
D 15.7028 37.2943 27.48 2.0141
D 15.7028 37.2943 31.4057 2.0141
D 15.7028 37.2943 35.3314 2.0141
D 19.6286 1.96286 0 2.0141
D 19.6286 1.96286 3.92571 2.0141
D 19.6286 1.96286 7.85142 2.0141
D 19.6286 1.96286 11.7771 2.0141
D 19.6286 1.96286 15.7028 2.0141
D 19.6286 1.96286 19.6286 2.0141
D 19.6286 1.96286 23.5543 2.0141
D 19.6286 1.96286 27.48 2.0141
D 19.6286 1.96286 31.4057 2.0141
D 19.6286 1.96286 35.3314 2.0141
D 19.6286 5.88857 0 2.0141
D 19.6286 5.88857 3.92571 2.0141
D 19.6286 5.88857 7.85142 2.0141
D 19.6286 5.88857 11.7771 2.0141
D 19.6286 5.88857 15.7028 2.0141
D 19.6286 5.88857 19.6286 2.0141
D 19.6286 5.88857 23.5543 2.0141
D 19.6286 5.88857 27.48 2.0141
D 19.6286 5.88857 31.4057 2.0141
D 19.6286 5.88857 35.3314 2.0141
D 19.6286 9.81428 0 2.0141
D 19.6286 9.81428 3.92571 2.0141
D 19.6286 9.81428 7.85142 2.0141
D 19.6286 9.81428 11.7771 2.0141
D 19.6286 9.81428 15.7028 2.0141
D 19.6286 9.81428 19.6286 2.0141
D 19.6286 9.81428 23.5543 2.0141
D 19.6286 9.81428 27.48 2.0141
D 19.6286 9.81428 31.4057 2.0141
D 19.6286 9.81428 35.3314 2.0141
D 19.6286 13.74 0 2.0141
D 19.6286 13.74 3.92571 2.0141
D 19.6286 13.74 7.85142 2.0141
D 19.6286 13.74 11.7771 2.0141
D 19.6286 13.74 15.7028 2.0141
D 19.6286 13.74 19.6286 2.0141
D 19.6286 13.74 23.5543 2.0141
D 19.6286 13.74 27.48 2.0141
D 19.6286 13.74 31.4057 2.0141
D 19.6286 13.74 35.3314 2.0141
D 19.6286 17.6657 0 2.0141
D 19.6286 17.6657 3.92571 2.0141
D 19.6286 17.6657 7.85142 2.0141
D 19.6286 17.6657 11.7771 2.0141
D 19.6286 17.6657 15.7028 2.0141
D 19.6286 17.6657 19.6286 2.0141
D 19.6286 17.6657 23.5543 2.0141
D 19.6286 17.6657 27.48 2.0141
D 19.6286 17.6657 31.4057 2.0141
D 19.6286 17.6657 35.3314 2.0141
D 19.6286 21.5914 0 2.0141
D 19.6286 21.5914 3.92571 2.0141
D 19.6286 21.5914 7.85142 2.0141
D 19.6286 21.5914 11.7771 2.0141
D 19.6286 21.5914 15.7028 2.0141
D 19.6286 21.5914 19.6286 2.0141
D 19.6286 21.5914 23.5543 2.0141
D 19.6286 21.5914 27.48 2.0141
D 19.6286 21.5914 31.4057 2.0141
D 19.6286 21.5914 35.3314 2.0141
D 19.6286 25.5171 0 2.0141
D 19.6286 25.5171 3.92571 2.0141
D 19.6286 25.5171 7.85142 2.0141
D 19.6286 25.5171 11.7771 2.0141
D 19.6286 25.5171 15.7028 2.0141
D 19.6286 25.5171 19.6286 2.0141
D 19.6286 25.5171 23.5543 2.0141
D 19.6286 25.5171 27.48 2.0141
D 19.6286 25.5171 31.4057 2.0141
D 19.6286 25.5171 35.3314 2.0141
D 19.6286 29.4428 0 2.0141
D 19.6286 29.4428 3.92571 2.0141
D 19.6286 29.4428 7.85142 2.0141
D 19.6286 29.4428 11.7771 2.0141
D 19.6286 29.4428 15.7028 2.0141
D 19.6286 29.4428 19.6286 2.0141
D 19.6286 29.4428 23.5543 2.0141
D 19.6286 29.4428 27.48 2.0141
D 19.6286 29.4428 31.4057 2.0141
D 19.6286 29.4428 35.3314 2.0141
D 19.6286 33.3685 0 2.0141
D 19.6286 33.3685 3.92571 2.0141
D 19.6286 33.3685 7.85142 2.0141
D 19.6286 33.3685 11.7771 2.0141
D 19.6286 33.3685 15.7028 2.0141
D 19.6286 33.3685 19.6286 2.0141
D 19.6286 33.3685 23.5543 2.0141
D 19.6286 33.3685 27.48 2.0141
D 19.6286 33.3685 31.4057 2.0141
D 19.6286 33.3685 35.3314 2.0141
D 19.6286 37.2943 0 2.0141
D 19.6286 37.2943 3.92571 2.0141
D 19.6286 37.2943 7.85142 2.0141
D 19.6286 37.2943 11.7771 2.0141
D 19.6286 37.2943 15.7028 2.0141
D 19.6286 37.2943 19.6286 2.0141
D 19.6286 37.2943 23.5543 2.0141
D 19.6286 37.2943 27.48 2.0141
D 19.6286 37.2943 31.4057 2.0141
D 19.6286 37.2943 35.3314 2.0141
D 23.5543 1.96286 0 2.0141
D 23.5543 1.96286 3.92571 2.0141
D 23.5543 1.96286 7.85142 2.0141
D 23.5543 1.96286 11.7771 2.0141
D 23.5543 1.96286 15.7028 2.0141
D 23.5543 1.96286 19.6286 2.0141
D 23.5543 1.96286 23.5543 2.0141
D 23.5543 1.96286 27.48 2.0141
D 23.5543 1.96286 31.4057 2.0141
D 23.5543 1.96286 35.3314 2.0141
D 23.5543 5.88857 0 2.0141
D 23.5543 5.88857 3.92571 2.0141
D 23.5543 5.88857 7.85142 2.0141
D 23.5543 5.88857 11.7771 2.0141
D 23.5543 5.88857 15.7028 2.0141
D 23.5543 5.88857 19.6286 2.0141
D 23.5543 5.88857 23.5543 2.0141
D 23.5543 5.88857 27.48 2.0141
D 23.5543 5.88857 31.4057 2.0141
D 23.5543 5.88857 35.3314 2.0141
D 23.5543 9.81428 0 2.0141
D 23.5543 9.81428 3.92571 2.0141
D 23.5543 9.81428 7.85142 2.0141
D 23.5543 9.81428 11.7771 2.0141
D 23.5543 9.81428 15.7028 2.0141
D 23.5543 9.81428 19.6286 2.0141
D 23.5543 9.81428 23.5543 2.0141
D 23.5543 9.81428 27.48 2.0141
D 23.5543 9.81428 31.4057 2.0141
D 23.5543 9.81428 35.3314 2.0141
D 23.5543 13.74 0 2.0141
D 23.5543 13.74 3.92571 2.0141
D 23.5543 13.74 7.85142 2.0141
D 23.5543 13.74 11.7771 2.0141
D 23.5543 13.74 15.7028 2.0141
D 23.5543 13.74 19.6286 2.0141
D 23.5543 13.74 23.5543 2.0141
D 23.5543 13.74 27.48 2.0141
D 23.5543 13.74 31.4057 2.0141
D 23.5543 13.74 35.3314 2.0141
D 23.5543 17.6657 0 2.0141
D 23.5543 17.6657 3.92571 2.0141
D 23.5543 17.6657 7.85142 2.0141
D 23.5543 17.6657 11.7771 2.0141
D 23.5543 17.6657 15.7028 2.0141
D 23.5543 17.6657 19.6286 2.0141
D 23.5543 17.6657 23.5543 2.0141
D 23.5543 17.6657 27.48 2.0141
D 23.5543 17.6657 31.4057 2.0141
D 23.5543 17.6657 35.3314 2.0141
D 23.5543 21.5914 0 2.0141
D 23.5543 21.5914 3.92571 2.0141
D 23.5543 21.5914 7.85142 2.0141
D 23.5543 21.5914 11.7771 2.0141
D 23.5543 21.5914 15.7028 2.0141
D 23.5543 21.5914 19.6286 2.0141
D 23.5543 21.5914 23.5543 2.0141
D 23.5543 21.5914 27.48 2.0141
D 23.5543 21.5914 31.4057 2.0141
D 23.5543 21.5914 35.3314 2.0141
D 23.5543 25.5171 0 2.0141
D 23.5543 25.5171 3.92571 2.0141
D 23.5543 25.5171 7.85142 2.0141
D 23.5543 25.5171 11.7771 2.0141
D 23.5543 25.5171 15.7028 2.0141
D 23.5543 25.5171 19.6286 2.0141
D 23.5543 25.5171 23.5543 2.0141
D 23.5543 25.5171 27.48 2.0141
D 23.5543 25.5171 31.4057 2.0141
D 23.5543 25.5171 35.3314 2.0141
D 23.5543 29.4428 0 2.0141
D 23.5543 29.4428 3.92571 2.0141
D 23.5543 29.4428 7.85142 2.0141
D 23.5543 29.4428 11.7771 2.0141
D 23.5543 29.4428 15.7028 2.0141
D 23.5543 29.4428 19.6286 2.0141
D 23.5543 29.4428 23.5543 2.0141
D 23.5543 29.4428 27.48 2.0141
D 23.5543 29.4428 31.4057 2.0141
D 23.5543 29.4428 35.3314 2.0141
D 23.5543 33.3685 0 2.0141
D 23.5543 33.3685 3.92571 2.0141
D 23.5543 33.3685 7.85142 2.0141
D 23.5543 33.3685 11.7771 2.0141
D 23.5543 33.3685 15.7028 2.0141
D 23.5543 33.3685 19.6286 2.0141
D 23.5543 33.3685 23.5543 2.0141
D 23.5543 33.3685 27.48 2.0141
D 23.5543 33.3685 31.4057 2.0141
D 23.5543 33.3685 35.3314 2.0141
D 23.5543 37.2943 0 2.0141
D 23.5543 37.2943 3.92571 2.0141
D 23.5543 37.2943 7.85142 2.0141
D 23.5543 37.2943 11.7771 2.0141
D 23.5543 37.2943 15.7028 2.0141
D 23.5543 37.2943 19.6286 2.0141
D 23.5543 37.2943 23.5543 2.0141
D 23.5543 37.2943 27.48 2.0141
D 23.5543 37.2943 31.4057 2.0141
D 23.5543 37.2943 35.3314 2.0141
D 27.48 1.96286 0 2.0141
D 27.48 1.96286 3.92571 2.0141
D 27.48 1.96286 7.85142 2.0141
D 27.48 1.96286 11.7771 2.0141
D 27.48 1.96286 15.7028 2.0141
D 27.48 1.96286 19.6286 2.0141
D 27.48 1.96286 23.5543 2.0141
D 27.48 1.96286 27.48 2.0141
D 27.48 1.96286 31.4057 2.0141
D 27.48 1.96286 35.3314 2.0141
D 27.48 5.88857 0 2.0141
D 27.48 5.88857 3.92571 2.0141
D 27.48 5.88857 7.85142 2.0141
D 27.48 5.88857 11.7771 2.0141
D 27.48 5.88857 15.7028 2.0141
D 27.48 5.88857 19.6286 2.0141
D 27.48 5.88857 23.5543 2.0141
D 27.48 5.88857 27.48 2.0141
D 27.48 5.88857 31.4057 2.0141
D 27.48 5.88857 35.3314 2.0141
D 27.48 9.81428 0 2.0141
D 27.48 9.81428 3.92571 2.0141
D 27.48 9.81428 7.85142 2.0141
D 27.48 9.81428 11.7771 2.0141
D 27.48 9.81428 15.7028 2.0141
D 27.48 9.81428 19.6286 2.0141
D 27.48 9.81428 23.5543 2.0141
D 27.48 9.81428 27.48 2.0141
D 27.48 9.81428 31.4057 2.0141
D 27.48 9.81428 35.3314 2.0141
D 27.48 13.74 0 2.0141
D 27.48 13.74 3.92571 2.0141
D 27.48 13.74 7.85142 2.0141
D 27.48 13.74 11.7771 2.0141
D 27.48 13.74 15.7028 2.0141
D 27.48 13.74 19.6286 2.0141
D 27.48 13.74 23.5543 2.0141
D 27.48 13.74 27.48 2.0141
D 27.48 13.74 31.4057 2.0141
D 27.48 13.74 35.3314 2.0141
D 27.48 17.6657 0 2.0141
D 27.48 17.6657 3.92571 2.0141
D 27.48 17.6657 7.85142 2.0141
D 27.48 17.6657 11.7771 2.0141
D 27.48 17.6657 15.7028 2.0141
D 27.48 17.6657 19.6286 2.0141
D 27.48 17.6657 23.5543 2.0141
D 27.48 17.6657 27.48 2.0141
D 27.48 17.6657 31.4057 2.0141
D 27.48 17.6657 35.3314 2.0141
D 27.48 21.5914 0 2.0141
D 27.48 21.5914 3.92571 2.0141
D 27.48 21.5914 7.85142 2.0141
D 27.48 21.5914 11.7771 2.0141
D 27.48 21.5914 15.7028 2.0141
D 27.48 21.5914 19.6286 2.0141
D 27.48 21.5914 23.5543 2.0141
D 27.48 21.5914 27.48 2.0141
D 27.48 21.5914 31.4057 2.0141
D 27.48 21.5914 35.3314 2.0141
D 27.48 25.5171 0 2.0141
D 27.48 25.5171 3.92571 2.0141
D 27.48 25.5171 7.85142 2.0141
D 27.48 25.5171 11.7771 2.0141
D 27.48 25.5171 15.7028 2.0141
D 27.48 25.5171 19.6286 2.0141
D 27.48 25.5171 23.5543 2.0141
D 27.48 25.5171 27.48 2.0141
D 27.48 25.5171 31.4057 2.0141
D 27.48 25.5171 35.3314 2.0141
D 27.48 29.4428 0 2.0141
D 27.48 29.4428 3.92571 2.0141
D 27.48 29.4428 7.85142 2.0141
D 27.48 29.4428 11.7771 2.0141
D 27.48 29.4428 15.7028 2.0141
D 27.48 29.4428 19.6286 2.0141
D 27.48 29.4428 23.5543 2.0141
D 27.48 29.4428 27.48 2.0141
D 27.48 29.4428 31.4057 2.0141
D 27.48 29.4428 35.3314 2.0141
D 27.48 33.3685 0 2.0141
D 27.48 33.3685 3.92571 2.0141
D 27.48 33.3685 7.85142 2.0141
D 27.48 33.3685 11.7771 2.0141
D 27.48 33.3685 15.7028 2.0141
D 27.48 33.3685 19.6286 2.0141
D 27.48 33.3685 23.5543 2.0141
D 27.48 33.3685 27.48 2.0141
D 27.48 33.3685 31.4057 2.0141
D 27.48 33.3685 35.3314 2.0141
D 27.48 37.2943 0 2.0141
D 27.48 37.2943 3.92571 2.0141
D 27.48 37.2943 7.85142 2.0141
D 27.48 37.2943 11.7771 2.0141
D 27.48 37.2943 15.7028 2.0141
D 27.48 37.2943 19.6286 2.0141
D 27.48 37.2943 23.5543 2.0141
D 27.48 37.2943 27.48 2.0141
D 27.48 37.2943 31.4057 2.0141
D 27.48 37.2943 35.3314 2.0141
D 31.4057 1.96286 0 2.0141
D 31.4057 1.96286 3.92571 2.0141
D 31.4057 1.96286 7.85142 2.0141
D 31.4057 1.96286 11.7771 2.0141
D 31.4057 1.96286 15.7028 2.0141
D 31.4057 1.96286 19.6286 2.0141
D 31.4057 1.96286 23.5543 2.0141
D 31.4057 1.96286 27.48 2.0141
D 31.4057 1.96286 31.4057 2.0141
D 31.4057 1.96286 35.3314 2.0141
D 31.4057 5.88857 0 2.0141
D 31.4057 5.88857 3.92571 2.0141
D 31.4057 5.88857 7.85142 2.0141
D 31.4057 5.88857 11.7771 2.0141
D 31.4057 5.88857 15.7028 2.0141
D 31.4057 5.88857 19.6286 2.0141
D 31.4057 5.88857 23.5543 2.0141
D 31.4057 5.88857 27.48 2.0141
D 31.4057 5.88857 31.4057 2.0141
D 31.4057 5.88857 35.3314 2.0141
D 31.4057 9.81428 0 2.0141
D 31.4057 9.81428 3.92571 2.0141
D 31.4057 9.81428 7.85142 2.0141
D 31.4057 9.81428 11.7771 2.0141
D 31.4057 9.81428 15.7028 2.0141
D 31.4057 9.81428 19.6286 2.0141
D 31.4057 9.81428 23.5543 2.0141
D 31.4057 9.81428 27.48 2.0141
D 31.4057 9.81428 31.4057 2.0141
D 31.4057 9.81428 35.3314 2.0141
D 31.4057 13.74 0 2.0141
D 31.4057 13.74 3.92571 2.0141
D 31.4057 13.74 7.85142 2.0141
D 31.4057 13.74 11.7771 2.0141
D 31.4057 13.74 15.7028 2.0141
D 31.4057 13.74 19.6286 2.0141
D 31.4057 13.74 23.5543 2.0141
D 31.4057 13.74 27.48 2.0141
D 31.4057 13.74 31.4057 2.0141
D 31.4057 13.74 35.3314 2.0141
D 31.4057 17.6657 0 2.0141
D 31.4057 17.6657 3.92571 2.0141
D 31.4057 17.6657 7.85142 2.0141
D 31.4057 17.6657 11.7771 2.0141
D 31.4057 17.6657 15.7028 2.0141
D 31.4057 17.6657 19.6286 2.0141
D 31.4057 17.6657 23.5543 2.0141
D 31.4057 17.6657 27.48 2.0141
D 31.4057 17.6657 31.4057 2.0141
D 31.4057 17.6657 35.3314 2.0141
D 31.4057 21.5914 0 2.0141
D 31.4057 21.5914 3.92571 2.0141
D 31.4057 21.5914 7.85142 2.0141
D 31.4057 21.5914 11.7771 2.0141
D 31.4057 21.5914 15.7028 2.0141
D 31.4057 21.5914 19.6286 2.0141
D 31.4057 21.5914 23.5543 2.0141
D 31.4057 21.5914 27.48 2.0141
D 31.4057 21.5914 31.4057 2.0141
D 31.4057 21.5914 35.3314 2.0141
D 31.4057 25.5171 0 2.0141
D 31.4057 25.5171 3.92571 2.0141
D 31.4057 25.5171 7.85142 2.0141
D 31.4057 25.5171 11.7771 2.0141
D 31.4057 25.5171 15.7028 2.0141
D 31.4057 25.5171 19.6286 2.0141
D 31.4057 25.5171 23.5543 2.0141
D 31.4057 25.5171 27.48 2.0141
D 31.4057 25.5171 31.4057 2.0141
D 31.4057 25.5171 35.3314 2.0141
D 31.4057 29.4428 0 2.0141
D 31.4057 29.4428 3.92571 2.0141
D 31.4057 29.4428 7.85142 2.0141
D 31.4057 29.4428 11.7771 2.0141
D 31.4057 29.4428 15.7028 2.0141
D 31.4057 29.4428 19.6286 2.0141
D 31.4057 29.4428 23.5543 2.0141
D 31.4057 29.4428 27.48 2.0141
D 31.4057 29.4428 31.4057 2.0141
D 31.4057 29.4428 35.3314 2.0141
D 31.4057 33.3685 0 2.0141
D 31.4057 33.3685 3.92571 2.0141
D 31.4057 33.3685 7.85142 2.0141
D 31.4057 33.3685 11.7771 2.0141
D 31.4057 33.3685 15.7028 2.0141
D 31.4057 33.3685 19.6286 2.0141
D 31.4057 33.3685 23.5543 2.0141
D 31.4057 33.3685 27.48 2.0141
D 31.4057 33.3685 31.4057 2.0141
D 31.4057 33.3685 35.3314 2.0141
D 31.4057 37.2943 0 2.0141
D 31.4057 37.2943 3.92571 2.0141
D 31.4057 37.2943 7.85142 2.0141
D 31.4057 37.2943 11.7771 2.0141
D 31.4057 37.2943 15.7028 2.0141
D 31.4057 37.2943 19.6286 2.0141
D 31.4057 37.2943 23.5543 2.0141
D 31.4057 37.2943 27.48 2.0141
D 31.4057 37.2943 31.4057 2.0141
D 31.4057 37.2943 35.3314 2.0141
D 35.3314 1.96286 0 2.0141
D 35.3314 1.96286 3.92571 2.0141
D 35.3314 1.96286 7.85142 2.0141
D 35.3314 1.96286 11.7771 2.0141
D 35.3314 1.96286 15.7028 2.0141
D 35.3314 1.96286 19.6286 2.0141
D 35.3314 1.96286 23.5543 2.0141
D 35.3314 1.96286 27.48 2.0141
D 35.3314 1.96286 31.4057 2.0141
D 35.3314 1.96286 35.3314 2.0141
D 35.3314 5.88857 0 2.0141
D 35.3314 5.88857 3.92571 2.0141
D 35.3314 5.88857 7.85142 2.0141
D 35.3314 5.88857 11.7771 2.0141
D 35.3314 5.88857 15.7028 2.0141
D 35.3314 5.88857 19.6286 2.0141
D 35.3314 5.88857 23.5543 2.0141
D 35.3314 5.88857 27.48 2.0141
D 35.3314 5.88857 31.4057 2.0141
D 35.3314 5.88857 35.3314 2.0141
D 35.3314 9.81428 0 2.0141
D 35.3314 9.81428 3.92571 2.0141
D 35.3314 9.81428 7.85142 2.0141
D 35.3314 9.81428 11.7771 2.0141
D 35.3314 9.81428 15.7028 2.0141
D 35.3314 9.81428 19.6286 2.0141
D 35.3314 9.81428 23.5543 2.0141
D 35.3314 9.81428 27.48 2.0141
D 35.3314 9.81428 31.4057 2.0141
D 35.3314 9.81428 35.3314 2.0141
D 35.3314 13.74 0 2.0141
D 35.3314 13.74 3.92571 2.0141
D 35.3314 13.74 7.85142 2.0141
D 35.3314 13.74 11.7771 2.0141
D 35.3314 13.74 15.7028 2.0141
D 35.3314 13.74 19.6286 2.0141
D 35.3314 13.74 23.5543 2.0141
D 35.3314 13.74 27.48 2.0141
D 35.3314 13.74 31.4057 2.0141
D 35.3314 13.74 35.3314 2.0141
D 35.3314 17.6657 0 2.0141
D 35.3314 17.6657 3.92571 2.0141
D 35.3314 17.6657 7.85142 2.0141
D 35.3314 17.6657 11.7771 2.0141
D 35.3314 17.6657 15.7028 2.0141
D 35.3314 17.6657 19.6286 2.0141
D 35.3314 17.6657 23.5543 2.0141
D 35.3314 17.6657 27.48 2.0141
D 35.3314 17.6657 31.4057 2.0141
D 35.3314 17.6657 35.3314 2.0141
D 35.3314 21.5914 0 2.0141
D 35.3314 21.5914 3.92571 2.0141
D 35.3314 21.5914 7.85142 2.0141
D 35.3314 21.5914 11.7771 2.0141
D 35.3314 21.5914 15.7028 2.0141
D 35.3314 21.5914 19.6286 2.0141
D 35.3314 21.5914 23.5543 2.0141
D 35.3314 21.5914 27.48 2.0141
D 35.3314 21.5914 31.4057 2.0141
D 35.3314 21.5914 35.3314 2.0141
D 35.3314 25.5171 0 2.0141
D 35.3314 25.5171 3.92571 2.0141
D 35.3314 25.5171 7.85142 2.0141
D 35.3314 25.5171 11.7771 2.0141
D 35.3314 25.5171 15.7028 2.0141
D 35.3314 25.5171 19.6286 2.0141
D 35.3314 25.5171 23.5543 2.0141
D 35.3314 25.5171 27.48 2.0141
D 35.3314 25.5171 31.4057 2.0141
D 35.3314 25.5171 35.3314 2.0141
D 35.3314 29.4428 0 2.0141
D 35.3314 29.4428 3.92571 2.0141
D 35.3314 29.4428 7.85142 2.0141
D 35.3314 29.4428 11.7771 2.0141
D 35.3314 29.4428 15.7028 2.0141
D 35.3314 29.4428 19.6286 2.0141
D 35.3314 29.4428 23.5543 2.0141
D 35.3314 29.4428 27.48 2.0141
D 35.3314 29.4428 31.4057 2.0141
D 35.3314 29.4428 35.3314 2.0141
D 35.3314 33.3685 0 2.0141
D 35.3314 33.3685 3.92571 2.0141
D 35.3314 33.3685 7.85142 2.0141
D 35.3314 33.3685 11.7771 2.0141
D 35.3314 33.3685 15.7028 2.0141
D 35.3314 33.3685 19.6286 2.0141
D 35.3314 33.3685 23.5543 2.0141
D 35.3314 33.3685 27.48 2.0141
D 35.3314 33.3685 31.4057 2.0141
D 35.3314 33.3685 35.3314 2.0141
D 35.3314 37.2943 0 2.0141
D 35.3314 37.2943 3.92571 2.0141
D 35.3314 37.2943 7.85142 2.0141
D 35.3314 37.2943 11.7771 2.0141
D 35.3314 37.2943 15.7028 2.0141
D 35.3314 37.2943 19.6286 2.0141
D 35.3314 37.2943 23.5543 2.0141
D 35.3314 37.2943 27.48 2.0141
D 35.3314 37.2943 31.4057 2.0141
D 35.3314 37.2943 35.3314 2.0141
