# LAMMPS inputfile for nano-indentation modeling on MoS2 nanosheets written by Penghua Ying (hityingph@163.com) 
#1 General settings 
units         metal
atom_style    atomic
neighbor      0.3 bin
variable      simname index Graphene_indent


#2 Structure 
boundary      p p p
read_data     ${simname}.data
mass          1   12.0110 # C in graphene
mass          2   15.9994 # O in SiO2 substrate
mass          3   28.0855 # Si in SiO2 substrate
mass          4   12.0110 # C in diamond indent

group         gr  type 1
group         sub type 2 3
group         ind type 4
region        rfixed block INF INF INF INF INF 0
group         fixed region rfixed
group         freezed union fixed ind
group         dynamic subtract all freezed


#3 variables
variable        temperature equal 300
variable        seed equal 1024
variable        tstep equal 0.001
variable        tdamp   equal 0.1
compute         freezedTemp freezed temp
compute         dynamicTemp dynamic temp

variable        disC equal xcm(ind,z)
variable        forC equal fcm(ind,z)

comm_style      tiled
fix             fixbalance all balance 1000 1.2 rcb


#4 potentials
pair_style    hybrid/overlay airebo 2.5 1 0 tersoff lj/cut 10.0
pair_coeff    * * airebo CH.airebo C NULL NULL NULL  #Airebo potential from J Chem Phys, 2000, 112, 6472-6486
pair_coeff    * * tersoff SiO.tersoff NULL O Si NULL #Tersoff potential from CMS, 2007, 39, 334-339
# LJ interaction from UFF: JACS, 1992, 114, 10024-10035
pair_coeff    1 2 lj/cut 0.0034419 3.2745 #C(gr)-O(sub) 
pair_coeff    1 3 lj/cut 0.0089092 3.6286 #C(gr)-Si(sub)
pair_coeff    1 4 lj/cut 0.0045532 3.4309 #C(gr)-C(ind) 
pair_coeff    2 4 lj/cut 0.0034419 3.2745 #O(sub)-C(ind)
pair_coeff    3 4 lj/cut 0.0089092 3.6286 #Si(sub)-C(ind) 
pair_coeff    4 4 lj/cut 0.0       3.4309 #C(ind)-C(ind) zero LJ interaction


#5 Relaxation
thermo          1000
thermo_style    custom step temp c_freezedTemp c_dynamicTemp etotal lx ly lz pxx pyy pzz

reset_timestep  0
timestep        ${tstep}
velocity        dynamic create ${temperature} ${seed} rot yes dist gaussian
velocity        freezed set 0 0 0 units box
fix             1 fixed setforce 0 0 0
fix             2 dynamic nvt temp ${temperature} ${temperature} ${tdamp}
dump            1 all custom 1000 ${simname}.lammpstrj id type x y z
run             10000


#6 Loading
thermo_modify   lost ignore
reset_timestep  0 
fix             3 ind move linear 0 0 -0.5
fix             4 all ave/time 1 1000 1000  v_disC v_forC file ${simname}.nanoindentation.dat
run             160000

unfix           3
fix             5 ind move linear 0 0 0.5
run             160000

