POSCAR file written by OVITO Basic 3.5.4
1
6.525660924 0.0 0.0
0.0 5.6500367153 0.0
0.0 0.0 5.63
P 
8 
Direct
0.2500000011 0.1666674206 0.609992953
0.5000000091 0.333332385 0.3900072833
2.39053841e-08 0.6666676191 0.609992729
0.2500000082 0.833332576 0.390007024
0.7500000064 0.1666674268 0.6099930286
1.25622028e-08 0.3333323663 0.3900072548
0.4999999621 0.666667618 0.6099927275
0.7499999766 0.8333325882 0.3900069998
