17664
Lattice="68.9908 0.0 0.0 0.0 68.9908 0.0 0.0 0.0 68.9908" Properties=species:S:1:pos:R:3
H 6.6716332244 14.664429627 12.5704588449
H 10.5757207695 2.5831143537 12.5702727767
H 10.5757349505 14.6645807272 4.6773199978
H 6.6716827702 2.5833487983 4.6774042977
H 12.5704285441 6.6719041306 14.6645768637
H 12.5704280543 10.5759268415 2.5833747457
H 4.6773644313 10.5759445618 14.6644755059
H 4.677381065 6.6718588726 2.5831732546
H 14.6643990193 12.5703500291 6.6716451805
H 2.5830551251 12.5702684717 10.575859986
H 14.6645185562 4.6771507358 10.5756444587
H 2.5833669359 4.6772926119 6.6716109852
H 14.6644841091 6.6713988868 12.5703999371
H 2.58312572 10.5756440413 12.5702354734
H 14.6645040888 10.5757993741 4.6771836754
H 2.583445513 6.6719603374 4.6772747192
H 6.6718249464 12.5705196913 14.6646014935
H 10.5759346168 12.5704204584 2.5834231048
H 10.5760136975 4.6772850816 14.6645750458
H 6.6718499625 4.6773449069 2.5831740722
H 12.5703793399 14.6645678535 6.6717126328
H 12.5702881202 2.5831568072 10.5758204336
H 4.6771795808 14.664437078 10.5758642496
H 4.6772346631 2.5832488927 6.6719715864
H 15.2956846672 6.0406662277 3.9465490816
H 1.9521799069 11.2071410495 3.9464576619
H 1.9518668266 6.0405445004 13.3011759897
H 15.2955496867 11.2069200927 13.3010298499
H 3.9465435071 15.2954824345 6.0406962422
H 3.9464554507 1.9519559214 11.2070529207
H 13.3010771569 1.9520103689 6.0406242572
H 13.3012031617 15.2957654451 11.207126282
H 6.0407660333 3.9465934565 15.2954323886
H 11.2071994261 3.9464916019 1.9519793127
H 6.040636196 13.3011535953 1.9521291745
H 11.2071742513 13.3012177808 15.2958314693
H 6.0405525067 15.295659251 3.9466261685
H 11.2071294591 1.9520872764 3.9465632799
H 6.0406738409 1.9519044335 13.3011231738
H 11.2070393329 15.2954790022 13.3010958672
H 15.2955404971 3.9465863194 6.0405267766
H 1.9520876248 3.9465764192 11.2069213794
H 1.9518917254 13.301106133 6.0406649514
H 15.2955496936 13.3011130045 11.2070640213
H 3.9466374519 6.0407019684 15.295449481
H 3.9465518585 11.2071688839 1.9518222827
H 13.3011307455 6.0407169153 1.9520683626
H 13.3012327657 11.207173727 15.2957290042
H 6.4156690982 2.311036581 10.8323577008
H 10.4852318325 15.6193531944 9.2059314784
H 10.8322379156 2.3112091822 6.4154780903
H 6.4155201919 14.9366386271 6.4154350124
H 9.2059190083 6.7625519637 1.6281910313
H 10.83210229 10.8323501912 14.936746853
H 8.0417631231 10.4851302884 1.6282438989
H 6.4155040032 6.41545097 14.9364630455
H 1.6282175824 9.2061041003 6.7626364774
H 14.9363426738 10.832083214 10.8322439523
H 1.6280114517 8.0418534665 10.4850079125
H 14.9367233168 6.4155300542 6.4154148844
H 2.3111357829 6.4157439429 10.8323177862
H 15.6192622024 10.4851082907 9.2059591851
H 2.311144217 10.8323779255 6.4155560637
H 15.6197227505 6.7625967698 8.0416638005
H 6.4154665171 10.8321323596 2.311167191
H 10.4851448248 9.206057942 15.6196679339
H 10.8321745406 6.4155109782 2.3111935489
H 6.7626004539 8.0416937839 15.6194671707
H 9.205993715 1.6282448889 6.7626688203
H 10.8321720362 14.9364439868 10.8322250108
H 8.041824863 1.6279744726 10.4850315833
H 8.0417525675 15.6196862371 6.7625115282
H 15.0394141977 10.9350212649 2.2083957978
H 1.8612767078 6.995730764 0.5820763696
H 2.2082801036 10.934938438 15.039198836
H 15.3862347059 6.995769523 16.6657338294
H 0.5820670283 15.3863898351 10.2520325212
H 2.2085227753 2.2082178187 6.3126363368
H 15.0395464496 2.2085489746 10.9349046049
H 16.665582605 15.3862701982 6.9957140096
H 10.9350459394 2.208211137 15.0392742257
H 6.9956141213 0.5822140201 1.8614266213
H 10.2519856558 16.6657194759 1.8615127253
H 6.9957388566 16.6655675616 15.3864515233
H 10.9349734129 15.0394882111 2.2085569051
H 6.312734183 2.208537222 2.2082971858
H 10.2521152999 1.8613935782 16.66559166
H 6.3127370358 15.0392794863 15.0395343659
H 15.3865749512 0.5822614892 10.2519884189
H 1.861237114 0.5820420053 6.9956313345
H 2.2083142851 15.0392892347 10.9350316204
H 15.0392886207 15.0393451069 6.3127268355
H 0.5820423675 10.251935741 15.3863801523
H 2.2085733387 6.3127871438 2.2082899693
H 16.6656859912 10.2520596001 1.8613917741
H 15.0391353887 6.3127016332 15.0395123337
H 6.7624523479 1.6281244206 9.2060063507
H 9.2059416304 15.6193780311 10.4850007789
H 10.4852889845 1.6282651343 8.0417595425
H 6.7625908504 15.6195910333 8.0417108901
H 10.4851018676 8.0417587353 1.6282389247
H 9.2058826812 10.4851514582 15.6197475527
H 6.762567873 9.2059260074 1.6281314784
H 8.0417709121 6.7625047602 15.6194829282
H 1.628123779 10.4853193128 8.0417892775
H 15.6192907888 9.2058625704 10.4850659786
H 1.6282372585 6.7625255057 9.2059653736
H 15.6197188491 8.0417718573 6.762495443
H 15.3865310938 10.2520392237 0.5821559816
H 0.582223765 6.9956282713 1.8613891835
H 1.8613189612 10.2520262672 16.6655056527
H 16.6654324776 6.9956620975 15.386553571
H 1.8613144975 16.6655341666 10.2520387235
H 0.5821707594 1.8613258672 6.9954805723
H 16.6657690561 1.8614657495 10.2518490299
H 15.3865241706 16.6655544878 6.9957147823
H 10.2520341046 0.5820362377 15.3865805361
H 6.9957328924 1.8612504154 0.5821089126
H 10.252023618 15.386570698 0.5822989374
H 6.9958096032 15.3864841318 16.665724864
H 6.6716332244 14.664429627 29.8181588449
H 10.5757207695 2.5831143537 29.8179727767
H 10.5757349505 14.6645807272 21.9250199978
H 6.6716827702 2.5833487983 21.9251043011
H 12.5704285441 6.6719041306 31.9122768603
H 12.5704280543 10.5759268415 19.8310747457
H 4.6773644313 10.5759445618 31.9121755059
H 4.677381065 6.6718588726 19.8308732546
H 14.6643990193 12.5703500291 23.9193451771
H 2.5830551251 12.5702684717 27.823559986
H 14.6645185562 4.6771507358 27.8233444587
H 2.5833669359 4.6772926119 23.9193109818
H 14.6644841091 6.6713988868 29.8180999371
H 2.58312572 10.5756440413 29.8179354699
H 14.6645040888 10.5757993741 21.9248836754
H 2.583445513 6.6719603374 21.9249747192
H 6.6718249464 12.5705196913 31.9123014935
H 10.5759346168 12.5704204584 19.8311231048
H 10.5760136975 4.6772850816 31.9122750424
H 6.6718499625 4.6773449069 19.8308740687
H 12.5703793399 14.6645678535 23.9194126328
H 12.5702881202 2.5831568072 27.8235204336
H 4.6771795808 14.664437078 27.8235642496
H 4.6772346631 2.5832488927 23.9196715864
H 15.2956846672 6.0406662277 21.1942490816
H 1.9521799069 11.2071410495 21.1941576619
H 1.9518668266 6.0405445004 30.5488759897
H 15.2955496867 11.2069200927 30.5487298499
H 3.9465435071 15.2954824345 23.2883962456
H 3.9464554507 1.9519559214 28.4547529207
H 13.3010771569 1.9520103689 23.2883242572
H 13.3012031617 15.2957654451 28.454826282
H 6.0407660333 3.9465934565 32.5431323886
H 11.2071994261 3.9464916019 19.1996793127
H 6.040636196 13.3011535953 19.1998291745
H 11.2071742513 13.3012177808 32.5435314693
H 6.0405525067 15.295659251 21.1943261719
H 11.2071294591 1.9520872764 21.1942632764
H 6.0406738409 1.9519044335 30.5488231738
H 11.2070393329 15.2954790022 30.5487958638
H 15.2955404971 3.9465863194 23.2882267766
H 1.9520876248 3.9465764192 28.4546213828
H 1.9518917254 13.301106133 23.2883649549
H 15.2955496936 13.3011130045 28.4547640213
H 3.9466374519 6.0407019684 32.5431494776
H 3.9465518585 11.2071688839 19.1995222827
H 13.3011307455 6.0407169153 19.1997683591
H 13.3012327657 11.207173727 32.5434290042
H 6.4156690982 2.311036581 28.0800576974
H 10.4852318325 15.6193531944 26.4536314784
H 10.8322379156 2.3112091822 23.6631780903
H 6.4155201919 14.9366386271 23.6631350124
H 9.2059190083 6.7625519637 18.8758910313
H 10.83210229 10.8323501912 32.184446853
H 8.0417631231 10.4851302884 18.8759438989
H 6.4155040032 6.41545097 32.1841630455
H 1.6282175824 9.2061041003 24.0103364774
H 14.9363426738 10.832083214 28.0799439523
H 1.6280114517 8.0418534665 27.7327079091
H 14.9367233168 6.4155300542 23.6631148878
H 2.3111357829 6.4157439429 28.0800177862
H 15.6192622024 10.4851082907 26.4536591851
H 2.311144217 10.8323779255 23.6632560672
H 15.6197227505 6.7625967698 25.2893638005
H 6.4154665171 10.8321323596 19.558867191
H 10.4851448248 9.206057942 32.8673679339
H 10.8321745406 6.4155109782 19.5588935455
H 6.7626004539 8.0416937839 32.8671671707
H 9.205993715 1.6282448889 24.0103688203
H 10.8321720362 14.9364439868 28.0799250108
H 8.041824863 1.6279744726 27.7327315833
H 8.0417525675 15.6196862371 24.0102115282
H 15.0394141977 10.9350212649 19.4560957978
H 1.8612767078 6.995730764 17.8297763696
H 2.2082801036 10.934938438 32.286898836
H 15.3862347059 6.995769523 33.9134338294
H 0.5820670283 15.3863898351 27.4997325212
H 2.2085227753 2.2082178187 23.5603363368
H 15.0395464496 2.2085489746 28.1826046014
H 16.665582605 15.3862701982 24.2434140096
H 10.9350459394 2.208211137 32.2869742257
H 6.9956141213 0.5822140201 19.1091266213
H 10.2519856558 16.6657194759 19.1092127253
H 6.9957388566 16.6655675616 32.6341515233
H 10.9349734129 15.0394882111 19.4562569051
H 6.312734183 2.208537222 19.4559971858
H 10.2521152999 1.8613935782 33.91329166
H 6.3127370358 15.0392794863 32.2872343659
H 15.3865749512 0.5822614892 27.4996884189
H 1.861237114 0.5820420053 24.2433313345
H 2.2083142851 15.0392892347 28.1827316204
H 15.0392886207 15.0393451069 23.5604268355
H 0.5820423675 10.251935741 32.6340801488
H 2.2085733387 6.3127871438 19.4559899659
H 16.6656859912 10.2520596001 19.1090917741
H 15.0391353887 6.3127016332 32.2872123337
H 6.7624523479 1.6281244206 26.4537063507
H 9.2059416304 15.6193780311 27.7327007789
H 10.4852889845 1.6282651343 25.2894595425
H 6.7625908504 15.6195910333 25.2894108901
H 10.4851018676 8.0417587353 18.8759389281
H 9.2058826812 10.4851514582 32.8674475527
H 6.762567873 9.2059260074 18.8758314784
H 8.0417709121 6.7625047602 32.8671829282
H 1.628123779 10.4853193128 25.2894892775
H 15.6192907888 9.2058625704 27.7327659786
H 1.6282372585 6.7625255057 26.4536653736
H 15.6197188491 8.0417718573 24.0101954396
H 15.3865310938 10.2520392237 17.8298559816
H 0.582223765 6.9956282713 19.1090891835
H 1.8613189612 10.2520262672 33.9132056527
H 16.6654324776 6.9956620975 32.634253571
H 1.8613144975 16.6655341666 27.4997387235
H 0.5821707594 1.8613258672 24.2431805723
H 16.6657690561 1.8614657495 27.4995490299
H 15.3865241706 16.6655544878 24.2434147823
H 10.2520341046 0.5820362377 32.6342805361
H 6.9957328924 1.8612504154 17.8298089126
H 10.252023618 15.386570698 17.8299989339
H 6.9958096032 15.3864841318 33.913424864
H 6.6716332244 31.912129627 12.5704588449
H 10.5757207695 19.8308143537 12.5702727767
H 10.5757349505 31.9122807272 4.6773199978
H 6.6716827702 19.8310487983 4.6774042977
H 12.5704285441 23.9196041306 14.6645768637
H 12.5704280543 27.8236268415 2.5833747457
H 4.6773644313 27.8236445618 14.6644755059
H 4.677381065 23.9195588761 2.5831732546
H 14.6643990193 29.8180500291 6.6716451805
H 2.5830551251 29.8179684717 10.575859986
H 14.6645185562 21.9248507358 10.5756444587
H 2.5833669359 21.9249926119 6.6716109852
H 14.6644841091 23.9190988868 12.5703999371
H 2.58312572 27.8233440413 12.5702354734
H 14.6645040888 27.8234993741 4.6771836754
H 2.583445513 23.919660334 4.6772747192
H 6.6718249464 29.8182196913 14.6646014935
H 10.5759346168 29.8181204584 2.5834231048
H 10.5760136975 21.9249850816 14.6645750458
H 6.6718499625 21.9250449069 2.5831740722
H 12.5703793399 31.9122678535 6.6717126328
H 12.5702881202 19.8308568038 10.5758204336
H 4.6771795808 31.912137078 10.5758642496
H 4.6772346631 19.8309488927 6.6719715864
H 15.2956846672 23.2883662277 3.9465490816
H 1.9521799069 28.4548410495 3.9464576619
H 1.9518668266 23.2882445004 13.3011759897
H 15.2955496867 28.4546200927 13.3010298499
H 3.9465435071 32.5431824345 6.0406962422
H 3.9464554507 19.1996559214 11.2070529207
H 13.3010771569 19.1997103689 6.0406242572
H 13.3012031617 32.5434654451 11.207126282
H 6.0407660333 21.1942934565 15.2954323886
H 11.2071994261 21.1941916019 1.9519793127
H 6.040636196 30.5488535953 1.9521291745
H 11.2071742513 30.5489177808 15.2958314693
H 6.0405525067 32.543359251 3.9466261685
H 11.2071294591 19.1997872764 3.9465632799
H 6.0406738409 19.1996044301 13.3011231738
H 11.2070393329 32.5431790022 13.3010958672
H 15.2955404971 21.1942863194 6.0405267766
H 1.9520876248 21.1942764192 11.2069213794
H 1.9518917254 30.548806133 6.0406649514
H 15.2955496936 30.5488130045 11.2070640213
H 3.9466374519 23.288401965 15.295449481
H 3.9465518585 28.4548688839 1.9518222827
H 13.3011307455 23.2884169118 1.9520683626
H 13.3012327657 28.4548737236 15.2957290042
H 6.4156690982 19.558736581 10.8323577008
H 10.4852318325 32.8670531944 9.2059314784
H 10.8322379156 19.5589091822 6.4154780903
H 6.4155201919 32.1843386306 6.4154350124
H 9.2059190083 24.0102519637 1.6281910313
H 10.83210229 28.0800501877 14.936746853
H 8.0417631231 27.7328302884 1.6282438989
H 6.4155040032 23.66315097 14.9364630455
H 1.6282175824 26.4538041003 6.7626364774
H 14.9363426738 28.079783214 10.8322439523
H 1.6280114517 25.28955347 10.4850079125
H 14.9367233168 23.6632300542 6.4154148844
H 2.3111357829 23.6634439464 10.8323177862
H 15.6192622024 27.7328082907 9.2059591851
H 2.311144217 28.080077922 6.4155560637
H 15.6197227505 24.0102967698 8.0416638005
H 6.4154665171 28.0798323596 2.311167191
H 10.4851448248 26.453757942 15.6196679339
H 10.8321745406 23.6632109782 2.3111935489
H 6.7626004539 25.2893937839 15.6194671707
H 9.205993715 18.8759448924 6.7626688203
H 10.8321720362 32.1841439868 10.8322250108
H 8.041824863 18.8756744726 10.4850315833
H 8.0417525675 32.8673862371 6.7625115282
H 15.0394141977 28.1827212649 2.2083957978
H 1.8612767078 24.243430764 0.5820763696
H 2.2082801036 28.182638438 15.039198836
H 15.3862347059 24.243469523 16.6657338294
H 0.5820670283 32.6340898351 10.2520325212
H 2.2085227753 19.4559178187 6.3126363368
H 15.0395464496 19.4562489746 10.9349046049
H 16.665582605 32.6339701982 6.9957140096
H 10.9350459394 19.455911137 15.0392742257
H 6.9956141213 17.8299140201 1.8614266213
H 10.2519856558 33.9134194759 1.8615127253
H 6.9957388566 33.913267565 15.3864515233
H 10.9349734129 32.2871882111 2.2085569051
H 6.312734183 19.4562372186 2.2082971858
H 10.2521152999 19.1090935782 16.66559166
H 6.3127370358 32.2869794863 15.0395343659
H 15.3865749512 17.8299614857 10.2519884189
H 1.861237114 17.8297420019 6.9956313345
H 2.2083142851 32.2869892347 10.9350316204
H 15.0392886207 32.2870451069 6.3127268355
H 0.5820423675 27.499635741 15.3863801523
H 2.2085733387 23.5604871404 2.2082899693
H 16.6656859912 27.4997596001 1.8613917741
H 15.0391353887 23.5604016332 15.0395123337
H 6.7624523479 18.8758244206 9.2060063507
H 9.2059416304 32.8670780276 10.4850007789
H 10.4852889845 18.8759651343 8.0417595425
H 6.7625908504 32.8672910333 8.0417108901
H 10.4851018676 25.2894587353 1.6282389247
H 9.2058826812 27.7328514582 15.6197475527
H 6.762567873 26.4536260074 1.6281314784
H 8.0417709121 24.0102047602 15.6194829282
H 1.628123779 27.7330193128 8.0417892775
H 15.6192907888 26.4535625738 10.4850659786
H 1.6282372585 24.0102255057 9.2059653736
H 15.6197188491 25.2894718573 6.762495443
H 15.3865310938 27.4997392237 0.5821559816
H 0.582223765 24.2433282678 1.8613891835
H 1.8613189612 27.4997262672 16.6655056527
H 16.6654324776 24.2433620975 15.386553571
H 1.8613144975 33.9132341666 10.2520387235
H 0.5821707594 19.1090258672 6.9954805723
H 16.6657690561 19.1091657495 10.2518490299
H 15.3865241706 33.9132544878 6.9957147823
H 10.2520341046 17.8297362377 15.3865805361
H 6.9957328924 19.1089504154 0.5821089126
H 10.252023618 32.634270698 0.5822989374
H 6.9958096032 32.6341841352 16.665724864
H 6.6716332244 31.912129627 29.8181588449
H 10.5757207695 19.8308143537 29.8179727767
H 10.5757349505 31.9122807272 21.9250199978
H 6.6716827702 19.8310487983 21.9251043011
H 12.5704285441 23.9196041306 31.9122768603
H 12.5704280543 27.8236268415 19.8310747457
H 4.6773644313 27.8236445618 31.9121755059
H 4.677381065 23.9195588761 19.8308732546
H 14.6643990193 29.8180500291 23.9193451771
H 2.5830551251 29.8179684717 27.823559986
H 14.6645185562 21.9248507358 27.8233444587
H 2.5833669359 21.9249926119 23.9193109818
H 14.6644841091 23.9190988868 29.8180999371
H 2.58312572 27.8233440413 29.8179354699
H 14.6645040888 27.8234993741 21.9248836754
H 2.583445513 23.919660334 21.9249747192
H 6.6718249464 29.8182196913 31.9123014935
H 10.5759346168 29.8181204584 19.8311231048
H 10.5760136975 21.9249850816 31.9122750424
H 6.6718499625 21.9250449069 19.8308740687
H 12.5703793399 31.9122678535 23.9194126328
H 12.5702881202 19.8308568038 27.8235204336
H 4.6771795808 31.912137078 27.8235642496
H 4.6772346631 19.8309488927 23.9196715864
H 15.2956846672 23.2883662277 21.1942490816
H 1.9521799069 28.4548410495 21.1941576619
H 1.9518668266 23.2882445004 30.5488759897
H 15.2955496867 28.4546200927 30.5487298499
H 3.9465435071 32.5431824345 23.2883962456
H 3.9464554507 19.1996559214 28.4547529207
H 13.3010771569 19.1997103689 23.2883242572
H 13.3012031617 32.5434654451 28.454826282
H 6.0407660333 21.1942934565 32.5431323886
H 11.2071994261 21.1941916019 19.1996793127
H 6.040636196 30.5488535953 19.1998291745
H 11.2071742513 30.5489177808 32.5435314693
H 6.0405525067 32.543359251 21.1943261719
H 11.2071294591 19.1997872764 21.1942632764
H 6.0406738409 19.1996044301 30.5488231738
H 11.2070393329 32.5431790022 30.5487958638
H 15.2955404971 21.1942863194 23.2882267766
H 1.9520876248 21.1942764192 28.4546213828
H 1.9518917254 30.548806133 23.2883649549
H 15.2955496936 30.5488130045 28.4547640213
H 3.9466374519 23.288401965 32.5431494776
H 3.9465518585 28.4548688839 19.1995222827
H 13.3011307455 23.2884169118 19.1997683591
H 13.3012327657 28.4548737236 32.5434290042
H 6.4156690982 19.558736581 28.0800576974
H 10.4852318325 32.8670531944 26.4536314784
H 10.8322379156 19.5589091822 23.6631780903
H 6.4155201919 32.1843386306 23.6631350124
H 9.2059190083 24.0102519637 18.8758910313
H 10.83210229 28.0800501877 32.184446853
H 8.0417631231 27.7328302884 18.8759438989
H 6.4155040032 23.66315097 32.1841630455
H 1.6282175824 26.4538041003 24.0103364774
H 14.9363426738 28.079783214 28.0799439523
H 1.6280114517 25.28955347 27.7327079091
H 14.9367233168 23.6632300542 23.6631148878
H 2.3111357829 23.6634439464 28.0800177862
H 15.6192622024 27.7328082907 26.4536591851
H 2.311144217 28.080077922 23.6632560672
H 15.6197227505 24.0102967698 25.2893638005
H 6.4154665171 28.0798323596 19.558867191
H 10.4851448248 26.453757942 32.8673679339
H 10.8321745406 23.6632109782 19.5588935455
H 6.7626004539 25.2893937839 32.8671671707
H 9.205993715 18.8759448924 24.0103688203
H 10.8321720362 32.1841439868 28.0799250108
H 8.041824863 18.8756744726 27.7327315833
H 8.0417525675 32.8673862371 24.0102115282
H 15.0394141977 28.1827212649 19.4560957978
H 1.8612767078 24.243430764 17.8297763696
H 2.2082801036 28.182638438 32.286898836
H 15.3862347059 24.243469523 33.9134338294
H 0.5820670283 32.6340898351 27.4997325212
H 2.2085227753 19.4559178187 23.5603363368
H 15.0395464496 19.4562489746 28.1826046014
H 16.665582605 32.6339701982 24.2434140096
H 10.9350459394 19.455911137 32.2869742257
H 6.9956141213 17.8299140201 19.1091266213
H 10.2519856558 33.9134194759 19.1092127253
H 6.9957388566 33.913267565 32.6341515233
H 10.9349734129 32.2871882111 19.4562569051
H 6.312734183 19.4562372186 19.4559971858
H 10.2521152999 19.1090935782 33.91329166
H 6.3127370358 32.2869794863 32.2872343659
H 15.3865749512 17.8299614857 27.4996884189
H 1.861237114 17.8297420019 24.2433313345
H 2.2083142851 32.2869892347 28.1827316204
H 15.0392886207 32.2870451069 23.5604268355
H 0.5820423675 27.499635741 32.6340801488
H 2.2085733387 23.5604871404 19.4559899659
H 16.6656859912 27.4997596001 19.1090917741
H 15.0391353887 23.5604016332 32.2872123337
H 6.7624523479 18.8758244206 26.4537063507
H 9.2059416304 32.8670780276 27.7327007789
H 10.4852889845 18.8759651343 25.2894595425
H 6.7625908504 32.8672910333 25.2894108901
H 10.4851018676 25.2894587353 18.8759389281
H 9.2058826812 27.7328514582 32.8674475527
H 6.762567873 26.4536260074 18.8758314784
H 8.0417709121 24.0102047602 32.8671829282
H 1.628123779 27.7330193128 25.2894892775
H 15.6192907888 26.4535625738 27.7327659786
H 1.6282372585 24.0102255057 26.4536653736
H 15.6197188491 25.2894718573 24.0101954396
H 15.3865310938 27.4997392237 17.8298559816
H 0.582223765 24.2433282678 19.1090891835
H 1.8613189612 27.4997262672 33.9132056527
H 16.6654324776 24.2433620975 32.634253571
H 1.8613144975 33.9132341666 27.4997387235
H 0.5821707594 19.1090258672 24.2431805723
H 16.6657690561 19.1091657495 27.4995490299
H 15.3865241706 33.9132544878 24.2434147823
H 10.2520341046 17.8297362377 32.6342805361
H 6.9957328924 19.1089504154 17.8298089126
H 10.252023618 32.634270698 17.8299989339
H 6.9958096032 32.6341841352 33.913424864
H 23.9193332244 14.664429627 12.5704588449
H 27.8234207695 2.5831143537 12.5702727767
H 27.8234349505 14.6645807272 4.6773199978
H 23.9193827667 2.5833487983 4.6774042977
H 29.8181285441 6.6719041306 14.6645768637
H 29.8181280543 10.5759268415 2.5833747457
H 21.9250644313 10.5759445618 14.6644755059
H 21.925081065 6.6718588726 2.5831732546
H 31.9120990193 12.5703500291 6.6716451805
H 19.8307551286 12.5702684717 10.575859986
H 31.9122185562 4.6771507358 10.5756444587
H 19.8310669359 4.6772926119 6.6716109852
H 31.9121841091 6.6713988868 12.5703999371
H 19.8308257234 10.5756440413 12.5702354734
H 31.9122040888 10.5757993741 4.6771836754
H 19.8311455165 6.6719603374 4.6772747192
H 23.9195249464 12.5705196913 14.6646014935
H 27.8236346202 12.5704204584 2.5834231048
H 27.8237136975 4.6772850816 14.6645750458
H 23.9195499625 4.6773449069 2.5831740722
H 29.8180793433 14.6645678535 6.6717126328
H 29.8179881237 2.5831568072 10.5758204336
H 21.9248795808 14.664437078 10.5758642496
H 21.9249346631 2.5832488927 6.6719715864
H 32.5433846672 6.0406662277 3.9465490816
H 19.1998799069 11.2071410495 3.9464576619
H 19.1995668232 6.0405445004 13.3011759897
H 32.5432496867 11.2069200927 13.3010298499
H 21.1942435071 15.2954824345 6.0406962422
H 21.1941554507 1.9519559214 11.2070529207
H 30.5487771569 1.9520103689 6.0406242572
H 30.5489031617 15.2957654451 11.207126282
H 23.2884660333 3.9465934565 15.2954323886
H 28.4548994261 3.9464916019 1.9519793127
H 23.288336196 13.3011535953 1.9521291745
H 28.4548742513 13.3012177808 15.2958314693
H 23.2882525033 15.295659251 3.9466261685
H 28.4548294591 1.9520872764 3.9465632799
H 23.2883738409 1.9519044335 13.3011231738
H 28.4547393295 15.2954790022 13.3010958672
H 32.5432404971 3.9465863194 6.0405267766
H 19.1997876248 3.9465764192 11.2069213794
H 19.1995917254 13.301106133 6.0406649514
H 32.5432496936 13.3011130045 11.2070640213
H 21.1943374519 6.0407019684 15.295449481
H 21.1942518585 11.2071688839 1.9518222827
H 30.5488307455 6.0407169153 1.9520683626
H 30.5489327691 11.207173727 15.2957290042
H 23.6633690982 2.311036581 10.8323577008
H 27.7329318325 15.6193531944 9.2059314784
H 28.0799379156 2.3112091822 6.4154780903
H 23.6632201919 14.9366386271 6.4154350124
H 26.4536190083 6.7625519637 1.6281910313
H 28.07980229 10.8323501912 14.936746853
H 25.2894631231 10.4851302884 1.6282438989
H 23.6632040032 6.41545097 14.9364630455
H 18.8759175824 9.2061041003 6.7626364774
H 32.1840426738 10.832083214 10.8322439523
H 18.8757114517 8.0418534665 10.4850079125
H 32.1844233168 6.4155300542 6.4154148844
H 19.5588357795 6.4157439429 10.8323177862
H 32.8669622024 10.4851082907 9.2059591851
H 19.558844217 10.8323779255 6.4155560637
H 32.8674227505 6.7625967698 8.0416638005
H 23.6631665171 10.8321323596 2.311167191
H 27.7328448213 9.206057942 15.6196679339
H 28.0798745406 6.4155109782 2.3111935489
H 24.0103004573 8.0416937839 15.6194671707
H 26.453693715 1.6282448889 6.7626688203
H 28.0798720397 14.9364439868 10.8322250108
H 25.2895248664 1.6279744726 10.4850315833
H 25.2894525675 15.6196862371 6.7625115282
H 32.2871141977 10.9350212649 2.2083957978
H 19.1089767078 6.995730764 0.5820763696
H 19.4559801002 10.934938438 15.039198836
H 32.6339347059 6.995769523 16.6657338294
H 17.8297670283 15.3863898351 10.2520325212
H 19.4562227753 2.2082178187 6.3126363368
H 32.2872464496 2.2085489746 10.9349046049
H 33.913282605 15.3862701982 6.9957140096
H 28.182745936 2.208211137 15.0392742257
H 24.2433141213 0.5822140201 1.8614266213
H 27.4996856558 16.6657194759 1.8615127253
H 24.2434388566 16.6655675616 15.3864515233
H 28.1826734129 15.0394882111 2.2085569051
H 23.560434183 2.208537222 2.2082971858
H 27.4998152999 1.8613935782 16.66559166
H 23.5604370392 15.0392794863 15.0395343659
H 32.6342749512 0.5822614892 10.2519884189
H 19.108937114 0.5820420053 6.9956313345
H 19.4560142886 15.0392892347 10.9350316204
H 32.2869886241 15.0393451069 6.3127268355
H 17.8297423641 10.251935741 15.3863801523
H 19.4562733387 6.3127871438 2.2082899693
H 33.9133859946 10.2520596001 1.8613917741
H 32.2868353887 6.3127016332 15.0395123337
H 24.0101523479 1.6281244206 9.2060063507
H 26.4536416269 15.6193780311 10.4850007789
H 27.7329889879 1.6282651343 8.0417595425
H 24.0102908504 15.6195910333 8.0417108901
H 27.7328018676 8.0417587353 1.6282389247
H 26.4535826812 10.4851514582 15.6197475527
H 24.010267873 9.2059260074 1.6281314784
H 25.2894709121 6.7625047602 15.6194829282
H 18.875823779 10.4853193128 8.0417892775
H 32.8669907888 9.2058625704 10.4850659786
H 18.8759372585 6.7625255057 9.2059653736
H 32.8674188456 8.0417718573 6.762495443
H 32.6342310938 10.2520392237 0.5821559816
H 17.829923765 6.9956282713 1.8613891835
H 19.1090189612 10.2520262672 16.6655056527
H 33.9131324776 6.9956620975 15.386553571
H 19.1090144975 16.6655341666 10.2520387235
H 17.8298707594 1.8613258672 6.9954805723
H 33.9134690561 1.8614657495 10.2518490299
H 32.6342241706 16.6655544878 6.9957147823
H 27.4997341046 0.5820362377 15.3865805361
H 24.2434328924 1.8612504154 0.5821089126
H 27.499723618 15.386570698 0.5822989374
H 24.2435096032 15.3864841318 16.665724864
H 23.9193332244 14.664429627 29.8181588449
H 27.8234207695 2.5831143537 29.8179727767
H 27.8234349505 14.6645807272 21.9250199978
H 23.9193827667 2.5833487983 21.9251043011
H 29.8181285441 6.6719041306 31.9122768603
H 29.8181280543 10.5759268415 19.8310747457
H 21.9250644313 10.5759445618 31.9121755059
H 21.925081065 6.6718588726 19.8308732546
H 31.9120990193 12.5703500291 23.9193451771
H 19.8307551286 12.5702684717 27.823559986
H 31.9122185562 4.6771507358 27.8233444587
H 19.8310669359 4.6772926119 23.9193109818
H 31.9121841091 6.6713988868 29.8180999371
H 19.8308257234 10.5756440413 29.8179354699
H 31.9122040888 10.5757993741 21.9248836754
H 19.8311455165 6.6719603374 21.9249747192
H 23.9195249464 12.5705196913 31.9123014935
H 27.8236346202 12.5704204584 19.8311231048
H 27.8237136975 4.6772850816 31.9122750424
H 23.9195499625 4.6773449069 19.8308740687
H 29.8180793433 14.6645678535 23.9194126328
H 29.8179881237 2.5831568072 27.8235204336
H 21.9248795808 14.664437078 27.8235642496
H 21.9249346631 2.5832488927 23.9196715864
H 32.5433846672 6.0406662277 21.1942490816
H 19.1998799069 11.2071410495 21.1941576619
H 19.1995668232 6.0405445004 30.5488759897
H 32.5432496867 11.2069200927 30.5487298499
H 21.1942435071 15.2954824345 23.2883962456
H 21.1941554507 1.9519559214 28.4547529207
H 30.5487771569 1.9520103689 23.2883242572
H 30.5489031617 15.2957654451 28.454826282
H 23.2884660333 3.9465934565 32.5431323886
H 28.4548994261 3.9464916019 19.1996793127
H 23.288336196 13.3011535953 19.1998291745
H 28.4548742513 13.3012177808 32.5435314693
H 23.2882525033 15.295659251 21.1943261719
H 28.4548294591 1.9520872764 21.1942632764
H 23.2883738409 1.9519044335 30.5488231738
H 28.4547393295 15.2954790022 30.5487958638
H 32.5432404971 3.9465863194 23.2882267766
H 19.1997876248 3.9465764192 28.4546213828
H 19.1995917254 13.301106133 23.2883649549
H 32.5432496936 13.3011130045 28.4547640213
H 21.1943374519 6.0407019684 32.5431494776
H 21.1942518585 11.2071688839 19.1995222827
H 30.5488307455 6.0407169153 19.1997683591
H 30.5489327691 11.207173727 32.5434290042
H 23.6633690982 2.311036581 28.0800576974
H 27.7329318325 15.6193531944 26.4536314784
H 28.0799379156 2.3112091822 23.6631780903
H 23.6632201919 14.9366386271 23.6631350124
H 26.4536190083 6.7625519637 18.8758910313
H 28.07980229 10.8323501912 32.184446853
H 25.2894631231 10.4851302884 18.8759438989
H 23.6632040032 6.41545097 32.1841630455
H 18.8759175824 9.2061041003 24.0103364774
H 32.1840426738 10.832083214 28.0799439523
H 18.8757114517 8.0418534665 27.7327079091
H 32.1844233168 6.4155300542 23.6631148878
H 19.5588357795 6.4157439429 28.0800177862
H 32.8669622024 10.4851082907 26.4536591851
H 19.558844217 10.8323779255 23.6632560672
H 32.8674227505 6.7625967698 25.2893638005
H 23.6631665171 10.8321323596 19.558867191
H 27.7328448213 9.206057942 32.8673679339
H 28.0798745406 6.4155109782 19.5588935455
H 24.0103004573 8.0416937839 32.8671671707
H 26.453693715 1.6282448889 24.0103688203
H 28.0798720397 14.9364439868 28.0799250108
H 25.2895248664 1.6279744726 27.7327315833
H 25.2894525675 15.6196862371 24.0102115282
H 32.2871141977 10.9350212649 19.4560957978
H 19.1089767078 6.995730764 17.8297763696
H 19.4559801002 10.934938438 32.286898836
H 32.6339347059 6.995769523 33.9134338294
H 17.8297670283 15.3863898351 27.4997325212
H 19.4562227753 2.2082178187 23.5603363368
H 32.2872464496 2.2085489746 28.1826046014
H 33.913282605 15.3862701982 24.2434140096
H 28.182745936 2.208211137 32.2869742257
H 24.2433141213 0.5822140201 19.1091266213
H 27.4996856558 16.6657194759 19.1092127253
H 24.2434388566 16.6655675616 32.6341515233
H 28.1826734129 15.0394882111 19.4562569051
H 23.560434183 2.208537222 19.4559971858
H 27.4998152999 1.8613935782 33.91329166
H 23.5604370392 15.0392794863 32.2872343659
H 32.6342749512 0.5822614892 27.4996884189
H 19.108937114 0.5820420053 24.2433313345
H 19.4560142886 15.0392892347 28.1827316204
H 32.2869886241 15.0393451069 23.5604268355
H 17.8297423641 10.251935741 32.6340801488
H 19.4562733387 6.3127871438 19.4559899659
H 33.9133859946 10.2520596001 19.1090917741
H 32.2868353887 6.3127016332 32.2872123337
H 24.0101523479 1.6281244206 26.4537063507
H 26.4536416269 15.6193780311 27.7327007789
H 27.7329889879 1.6282651343 25.2894595425
H 24.0102908504 15.6195910333 25.2894108901
H 27.7328018676 8.0417587353 18.8759389281
H 26.4535826812 10.4851514582 32.8674475527
H 24.010267873 9.2059260074 18.8758314784
H 25.2894709121 6.7625047602 32.8671829282
H 18.875823779 10.4853193128 25.2894892775
H 32.8669907888 9.2058625704 27.7327659786
H 18.8759372585 6.7625255057 26.4536653736
H 32.8674188456 8.0417718573 24.0101954396
H 32.6342310938 10.2520392237 17.8298559816
H 17.829923765 6.9956282713 19.1090891835
H 19.1090189612 10.2520262672 33.9132056527
H 33.9131324776 6.9956620975 32.634253571
H 19.1090144975 16.6655341666 27.4997387235
H 17.8298707594 1.8613258672 24.2431805723
H 33.9134690561 1.8614657495 27.4995490299
H 32.6342241706 16.6655544878 24.2434147823
H 27.4997341046 0.5820362377 32.6342805361
H 24.2434328924 1.8612504154 17.8298089126
H 27.499723618 15.386570698 17.8299989339
H 24.2435096032 15.3864841318 33.913424864
H 23.9193332244 31.912129627 12.5704588449
H 27.8234207695 19.8308143537 12.5702727767
H 27.8234349505 31.9122807272 4.6773199978
H 23.9193827667 19.8310487983 4.6774042977
H 29.8181285441 23.9196041306 14.6645768637
H 29.8181280543 27.8236268415 2.5833747457
H 21.9250644313 27.8236445618 14.6644755059
H 21.925081065 23.9195588761 2.5831732546
H 31.9120990193 29.8180500291 6.6716451805
H 19.8307551286 29.8179684717 10.575859986
H 31.9122185562 21.9248507358 10.5756444587
H 19.8310669359 21.9249926119 6.6716109852
H 31.9121841091 23.9190988868 12.5703999371
H 19.8308257234 27.8233440413 12.5702354734
H 31.9122040888 27.8234993741 4.6771836754
H 19.8311455165 23.919660334 4.6772747192
H 23.9195249464 29.8182196913 14.6646014935
H 27.8236346202 29.8181204584 2.5834231048
H 27.8237136975 21.9249850816 14.6645750458
H 23.9195499625 21.9250449069 2.5831740722
H 29.8180793433 31.9122678535 6.6717126328
H 29.8179881237 19.8308568038 10.5758204336
H 21.9248795808 31.912137078 10.5758642496
H 21.9249346631 19.8309488927 6.6719715864
H 32.5433846672 23.2883662277 3.9465490816
H 19.1998799069 28.4548410495 3.9464576619
H 19.1995668232 23.2882445004 13.3011759897
H 32.5432496867 28.4546200927 13.3010298499
H 21.1942435071 32.5431824345 6.0406962422
H 21.1941554507 19.1996559214 11.2070529207
H 30.5487771569 19.1997103689 6.0406242572
H 30.5489031617 32.5434654451 11.207126282
H 23.2884660333 21.1942934565 15.2954323886
H 28.4548994261 21.1941916019 1.9519793127
H 23.288336196 30.5488535953 1.9521291745
H 28.4548742513 30.5489177808 15.2958314693
H 23.2882525033 32.543359251 3.9466261685
H 28.4548294591 19.1997872764 3.9465632799
H 23.2883738409 19.1996044301 13.3011231738
H 28.4547393295 32.5431790022 13.3010958672
H 32.5432404971 21.1942863194 6.0405267766
H 19.1997876248 21.1942764192 11.2069213794
H 19.1995917254 30.548806133 6.0406649514
H 32.5432496936 30.5488130045 11.2070640213
H 21.1943374519 23.288401965 15.295449481
H 21.1942518585 28.4548688839 1.9518222827
H 30.5488307455 23.2884169118 1.9520683626
H 30.5489327691 28.4548737236 15.2957290042
H 23.6633690982 19.558736581 10.8323577008
H 27.7329318325 32.8670531944 9.2059314784
H 28.0799379156 19.5589091822 6.4154780903
H 23.6632201919 32.1843386306 6.4154350124
H 26.4536190083 24.0102519637 1.6281910313
H 28.07980229 28.0800501877 14.936746853
H 25.2894631231 27.7328302884 1.6282438989
H 23.6632040032 23.66315097 14.9364630455
H 18.8759175824 26.4538041003 6.7626364774
H 32.1840426738 28.079783214 10.8322439523
H 18.8757114517 25.28955347 10.4850079125
H 32.1844233168 23.6632300542 6.4154148844
H 19.5588357795 23.6634439464 10.8323177862
H 32.8669622024 27.7328082907 9.2059591851
H 19.558844217 28.080077922 6.4155560637
H 32.8674227505 24.0102967698 8.0416638005
H 23.6631665171 28.0798323596 2.311167191
H 27.7328448213 26.453757942 15.6196679339
H 28.0798745406 23.6632109782 2.3111935489
H 24.0103004573 25.2893937839 15.6194671707
H 26.453693715 18.8759448924 6.7626688203
H 28.0798720397 32.1841439868 10.8322250108
H 25.2895248664 18.8756744726 10.4850315833
H 25.2894525675 32.8673862371 6.7625115282
H 32.2871141977 28.1827212649 2.2083957978
H 19.1089767078 24.243430764 0.5820763696
H 19.4559801002 28.182638438 15.039198836
H 32.6339347059 24.243469523 16.6657338294
H 17.8297670283 32.6340898351 10.2520325212
H 19.4562227753 19.4559178187 6.3126363368
H 32.2872464496 19.4562489746 10.9349046049
H 33.913282605 32.6339701982 6.9957140096
H 28.182745936 19.455911137 15.0392742257
H 24.2433141213 17.8299140201 1.8614266213
H 27.4996856558 33.9134194759 1.8615127253
H 24.2434388566 33.913267565 15.3864515233
H 28.1826734129 32.2871882111 2.2085569051
H 23.560434183 19.4562372186 2.2082971858
H 27.4998152999 19.1090935782 16.66559166
H 23.5604370392 32.2869794863 15.0395343659
H 32.6342749512 17.8299614857 10.2519884189
H 19.108937114 17.8297420019 6.9956313345
H 19.4560142886 32.2869892347 10.9350316204
H 32.2869886241 32.2870451069 6.3127268355
H 17.8297423641 27.499635741 15.3863801523
H 19.4562733387 23.5604871404 2.2082899693
H 33.9133859946 27.4997596001 1.8613917741
H 32.2868353887 23.5604016332 15.0395123337
H 24.0101523479 18.8758244206 9.2060063507
H 26.4536416269 32.8670780276 10.4850007789
H 27.7329889879 18.8759651343 8.0417595425
H 24.0102908504 32.8672910333 8.0417108901
H 27.7328018676 25.2894587353 1.6282389247
H 26.4535826812 27.7328514582 15.6197475527
H 24.010267873 26.4536260074 1.6281314784
H 25.2894709121 24.0102047602 15.6194829282
H 18.875823779 27.7330193128 8.0417892775
H 32.8669907888 26.4535625738 10.4850659786
H 18.8759372585 24.0102255057 9.2059653736
H 32.8674188456 25.2894718573 6.762495443
H 32.6342310938 27.4997392237 0.5821559816
H 17.829923765 24.2433282678 1.8613891835
H 19.1090189612 27.4997262672 16.6655056527
H 33.9131324776 24.2433620975 15.386553571
H 19.1090144975 33.9132341666 10.2520387235
H 17.8298707594 19.1090258672 6.9954805723
H 33.9134690561 19.1091657495 10.2518490299
H 32.6342241706 33.9132544878 6.9957147823
H 27.4997341046 17.8297362377 15.3865805361
H 24.2434328924 19.1089504154 0.5821089126
H 27.499723618 32.634270698 0.5822989374
H 24.2435096032 32.6341841352 16.665724864
H 23.9193332244 31.912129627 29.8181588449
H 27.8234207695 19.8308143537 29.8179727767
H 27.8234349505 31.9122807272 21.9250199978
H 23.9193827667 19.8310487983 21.9251043011
H 29.8181285441 23.9196041306 31.9122768603
H 29.8181280543 27.8236268415 19.8310747457
H 21.9250644313 27.8236445618 31.9121755059
H 21.925081065 23.9195588761 19.8308732546
H 31.9120990193 29.8180500291 23.9193451771
H 19.8307551286 29.8179684717 27.823559986
H 31.9122185562 21.9248507358 27.8233444587
H 19.8310669359 21.9249926119 23.9193109818
H 31.9121841091 23.9190988868 29.8180999371
H 19.8308257234 27.8233440413 29.8179354699
H 31.9122040888 27.8234993741 21.9248836754
H 19.8311455165 23.919660334 21.9249747192
H 23.9195249464 29.8182196913 31.9123014935
H 27.8236346202 29.8181204584 19.8311231048
H 27.8237136975 21.9249850816 31.9122750424
H 23.9195499625 21.9250449069 19.8308740687
H 29.8180793433 31.9122678535 23.9194126328
H 29.8179881237 19.8308568038 27.8235204336
H 21.9248795808 31.912137078 27.8235642496
H 21.9249346631 19.8309488927 23.9196715864
H 32.5433846672 23.2883662277 21.1942490816
H 19.1998799069 28.4548410495 21.1941576619
H 19.1995668232 23.2882445004 30.5488759897
H 32.5432496867 28.4546200927 30.5487298499
H 21.1942435071 32.5431824345 23.2883962456
H 21.1941554507 19.1996559214 28.4547529207
H 30.5487771569 19.1997103689 23.2883242572
H 30.5489031617 32.5434654451 28.454826282
H 23.2884660333 21.1942934565 32.5431323886
H 28.4548994261 21.1941916019 19.1996793127
H 23.288336196 30.5488535953 19.1998291745
H 28.4548742513 30.5489177808 32.5435314693
H 23.2882525033 32.543359251 21.1943261719
H 28.4548294591 19.1997872764 21.1942632764
H 23.2883738409 19.1996044301 30.5488231738
H 28.4547393295 32.5431790022 30.5487958638
H 32.5432404971 21.1942863194 23.2882267766
H 19.1997876248 21.1942764192 28.4546213828
H 19.1995917254 30.548806133 23.2883649549
H 32.5432496936 30.5488130045 28.4547640213
H 21.1943374519 23.288401965 32.5431494776
H 21.1942518585 28.4548688839 19.1995222827
H 30.5488307455 23.2884169118 19.1997683591
H 30.5489327691 28.4548737236 32.5434290042
H 23.6633690982 19.558736581 28.0800576974
H 27.7329318325 32.8670531944 26.4536314784
H 28.0799379156 19.5589091822 23.6631780903
H 23.6632201919 32.1843386306 23.6631350124
H 26.4536190083 24.0102519637 18.8758910313
H 28.07980229 28.0800501877 32.184446853
H 25.2894631231 27.7328302884 18.8759438989
H 23.6632040032 23.66315097 32.1841630455
H 18.8759175824 26.4538041003 24.0103364774
H 32.1840426738 28.079783214 28.0799439523
H 18.8757114517 25.28955347 27.7327079091
H 32.1844233168 23.6632300542 23.6631148878
H 19.5588357795 23.6634439464 28.0800177862
H 32.8669622024 27.7328082907 26.4536591851
H 19.558844217 28.080077922 23.6632560672
H 32.8674227505 24.0102967698 25.2893638005
H 23.6631665171 28.0798323596 19.558867191
H 27.7328448213 26.453757942 32.8673679339
H 28.0798745406 23.6632109782 19.5588935455
H 24.0103004573 25.2893937839 32.8671671707
H 26.453693715 18.8759448924 24.0103688203
H 28.0798720397 32.1841439868 28.0799250108
H 25.2895248664 18.8756744726 27.7327315833
H 25.2894525675 32.8673862371 24.0102115282
H 32.2871141977 28.1827212649 19.4560957978
H 19.1089767078 24.243430764 17.8297763696
H 19.4559801002 28.182638438 32.286898836
H 32.6339347059 24.243469523 33.9134338294
H 17.8297670283 32.6340898351 27.4997325212
H 19.4562227753 19.4559178187 23.5603363368
H 32.2872464496 19.4562489746 28.1826046014
H 33.913282605 32.6339701982 24.2434140096
H 28.182745936 19.455911137 32.2869742257
H 24.2433141213 17.8299140201 19.1091266213
H 27.4996856558 33.9134194759 19.1092127253
H 24.2434388566 33.913267565 32.6341515233
H 28.1826734129 32.2871882111 19.4562569051
H 23.560434183 19.4562372186 19.4559971858
H 27.4998152999 19.1090935782 33.91329166
H 23.5604370392 32.2869794863 32.2872343659
H 32.6342749512 17.8299614857 27.4996884189
H 19.108937114 17.8297420019 24.2433313345
H 19.4560142886 32.2869892347 28.1827316204
H 32.2869886241 32.2870451069 23.5604268355
H 17.8297423641 27.499635741 32.6340801488
H 19.4562733387 23.5604871404 19.4559899659
H 33.9133859946 27.4997596001 19.1090917741
H 32.2868353887 23.5604016332 32.2872123337
H 24.0101523479 18.8758244206 26.4537063507
H 26.4536416269 32.8670780276 27.7327007789
H 27.7329889879 18.8759651343 25.2894595425
H 24.0102908504 32.8672910333 25.2894108901
H 27.7328018676 25.2894587353 18.8759389281
H 26.4535826812 27.7328514582 32.8674475527
H 24.010267873 26.4536260074 18.8758314784
H 25.2894709121 24.0102047602 32.8671829282
H 18.875823779 27.7330193128 25.2894892775
H 32.8669907888 26.4535625738 27.7327659786
H 18.8759372585 24.0102255057 26.4536653736
H 32.8674188456 25.2894718573 24.0101954396
H 32.6342310938 27.4997392237 17.8298559816
H 17.829923765 24.2433282678 19.1090891835
H 19.1090189612 27.4997262672 33.9132056527
H 33.9131324776 24.2433620975 32.634253571
H 19.1090144975 33.9132341666 27.4997387235
H 17.8298707594 19.1090258672 24.2431805723
H 33.9134690561 19.1091657495 27.4995490299
H 32.6342241706 33.9132544878 24.2434147823
H 27.4997341046 17.8297362377 32.6342805361
H 24.2434328924 19.1089504154 17.8298089126
H 27.499723618 32.634270698 17.8299989339
H 24.2435096032 32.6341841352 33.913424864
C 6.5036575671 0.120408667 10.7440318807
C 10.7439990929 17.1270738705 10.7439677986
C 10.744038804 0.1205870669 6.5036837008
C 6.5036289463 17.1272719466 6.5036861397
C 10.74402424 6.5037147122 0.1205611436
C 10.7439972439 10.7440828615 17.1273806381
C 6.5037191035 10.7440424536 0.1205345476
C 6.5036800133 6.5036293982 17.1271080244
C 0.1204916595 10.744084024 6.5036494193
C 17.1270004781 10.7439046479 10.7439990204
C 0.1204797896 6.5036418027 10.7439429068
C 17.1273768333 6.5037243157 6.5035795592
C 15.1275890349 8.7443962347 2.1202198705
C 2.1202474358 8.5034051508 2.1201122552
C 2.1201254083 8.7443171747 15.127461909
C 15.1274042051 8.5033333865 15.127587148
C 2.120141121 15.1274365445 8.7443966452
C 2.1201785657 2.1201266605 8.5032633057
C 15.1275932537 2.1202508508 8.7442691122
C 15.1274957628 15.1275013062 8.5033629732
C 8.7444019368 2.1200940658 15.127522138
C 8.5033814214 2.1202272042 2.1201932332
C 8.7443223421 15.1276196875 2.1203183894
C 8.5033962544 15.1275011199 15.127619177
C 6.3922740834 15.439271166 11.8414446655
C 10.8551832622 1.808238102 11.8413395787
C 10.8551965877 15.4394464096 5.4062710437
C 6.3923053638 1.8084588208 5.4063592933
C 11.8414538758 6.3924696999 15.4394297621
C 11.841441523 10.8553389917 1.8085202295
C 5.4063302481 10.8553369806 15.4393682361
C 5.4063159636 6.392424028 1.8082826493
C 15.4392810145 11.8413819598 6.392288637
C 1.8081881664 11.8412816127 10.8552516045
C 15.4393750903 5.4061136308 10.855127421
C 1.808525973 5.4063049665 6.3922555456
C 15.4393321505 6.3921385648 11.8413510691
C 1.8082092224 10.8551171241 11.8413360361
C 15.4393548208 10.8552530153 5.4061663846
C 1.8085546973 6.3925003387 5.4062009973
C 6.3924245351 11.8415068193 15.4394310591
C 10.8553206815 11.841462917 1.8085418857
C 10.8553638007 5.4062893193 15.4394308694
C 6.3924287021 5.4062870047 1.8082874408
C 11.8413873963 15.4394276475 6.392346848
C 11.8413311722 1.8082698516 10.8552333564
C 5.406168413 15.4392922565 10.8552859032
C 5.4061965233 1.8084000303 6.392507224
C 15.0162935834 6.815534311 3.2175792392
C 2.2315447259 10.4322797136 3.2174732935
C 2.2313507065 6.8154520808 14.0300811118
C 15.0161642291 10.4321178888 14.0300759444
C 3.2175306766 15.0161270465 6.8155437213
C 3.2175211248 2.2313836531 10.4321527533
C 14.0300768275 2.2314484113 6.8154641646
C 14.0301248382 15.0163071574 10.4322334759
C 6.8155915837 3.2175430811 15.0161212617
C 10.4322905244 3.2175712397 2.2314247164
C 6.8154869695 14.0301515066 2.231544957
C 10.4322703619 14.0301271494 15.0163659686
C 6.8154381861 15.0162780915 3.217666209
C 10.4322561498 2.2314840002 3.2175901535
C 6.8155662985 2.2313534282 14.0300709322
C 10.4322049448 15.0161483405 14.0301345452
C 15.0161900903 3.217604683 6.8154021108
C 2.2314608779 3.2175694528 10.4320822136
C 2.2313505133 14.0300365886 6.8155478194
C 15.0161764371 14.0301096878 10.4322134376
C 3.2175830302 6.815513631 15.0161165116
C 3.2176312755 10.4322801551 2.2312946308
C 14.0301254177 6.8155718868 2.2314791777
C 14.0301186394 10.4322413375 15.0162919725
C 6.9535851363 1.4936083907 10.2941685385
C 10.294158352 15.753851173 10.2941015553
C 10.2942094121 1.4937931411 6.9535832287
C 6.9535491266 15.7540722091 6.9535166733
C 10.2941215247 6.9535679576 1.4937631888
C 10.2940989613 10.2942296506 15.7541689377
C 6.9535665019 10.2941249432 1.4937394525
C 6.9535661363 6.9534976387 15.7539018605
C 1.4937162647 10.2942927461 6.9535949606
C 15.7537604052 10.2940625755 10.2941377169
C 1.4936826351 6.9536278037 10.2941237842
C 15.7541635874 6.9535833771 6.9534696043
C 15.5774896736 10.1176002944 1.6703597122
C 1.6703957979 7.1301701935 1.67029048
C 1.6702599688 10.117527823 15.577326669
C 15.5772292643 7.1301371159 15.5775307852
C 1.6702779754 15.5773483321 10.1175926433
C 1.6703427681 1.6702510517 7.130041843
C 15.5775565463 1.6704497521 10.1174766732
C 15.577398892 15.5773469454 7.1301586376
C 10.117614503 1.6702515277 15.5774314557
C 7.1301471333 1.6703751455 1.670327497
C 10.1175436564 15.5775345176 1.6704922849
C 7.1301936987 15.5773913065 15.5775098016
C 6.5036575671 0.120408667 27.9917318773
C 10.7439990929 17.1270738705 27.9916677986
C 10.744038804 0.1205870669 23.7513837008
C 6.5036289463 17.1272719466 23.7513861397
C 10.74402424 6.5037147122 17.368261147
C 10.7439972439 10.7440828615 34.3750806416
C 6.5037191035 10.7440424536 17.3682345476
C 6.5036800133 6.5036293982 34.3748080244
C 0.1204916595 10.744084024 23.7513494193
C 17.1270004781 10.7439046479 27.9916990204
C 0.1204797896 6.5036418027 27.9916429068
C 17.1273768333 6.5037243157 23.7512795558
C 15.1275890349 8.7443962347 19.3679198705
C 2.1202474358 8.5034051508 19.3678122552
C 2.1201254083 8.7443171747 32.375161909
C 15.1274042051 8.5033333865 32.375287148
C 2.120141121 15.1274365445 25.9920966452
C 2.1201785657 2.1201266605 25.7509633057
C 15.1275932537 2.1202508508 25.9919691122
C 15.1274957628 15.1275013062 25.7510629732
C 8.7444019368 2.1200940658 32.3752221414
C 8.5033814214 2.1202272042 19.3678932366
C 8.7443223421 15.1276196875 19.3680183894
C 8.5033962544 15.1275011199 32.375319177
C 6.3922740834 15.439271166 29.0891446655
C 10.8551832622 1.808238102 29.0890395753
C 10.8551965877 15.4394464096 22.6539710437
C 6.3923053638 1.8084588208 22.6540592933
C 11.8414538758 6.3924696999 32.6871297621
C 11.841441523 10.8553389917 19.0562202295
C 5.4063302481 10.8553369806 32.6870682361
C 5.4063159636 6.392424028 19.0559826493
C 15.4392810145 11.8413819598 23.639988637
C 1.8081881664 11.8412816127 28.102951601
C 15.4393750903 5.4061136308 28.102827421
C 1.808525973 5.4063049665 23.6399555456
C 15.4393321505 6.3921385648 29.0890510657
C 1.8082092224 10.8551171241 29.0890360361
C 15.4393548208 10.8552530153 22.6538663812
C 1.8085546973 6.3925003387 22.6539009939
C 6.3924245351 11.8415068193 32.6871310591
C 10.8553206815 11.841462917 19.0562418857
C 10.8553638007 5.4062893193 32.6871308694
C 6.3924287021 5.4062870047 19.0559874408
C 11.8413873963 15.4394276475 23.640046848
C 11.8413311722 1.8082698516 28.1029333564
C 5.406168413 15.4392922565 28.1029859032
C 5.4061965233 1.8084000303 23.640207224
C 15.0162935834 6.815534311 20.4652792357
C 2.2315447259 10.4322797136 20.4651732935
C 2.2313507065 6.8154520808 31.2777811118
C 15.0161642291 10.4321178888 31.2777759444
C 3.2175306766 15.0161270465 24.0632437213
C 3.2175211248 2.2313836531 27.6798527533
C 14.0300768275 2.2314484113 24.0631641646
C 14.0301248382 15.0163071574 27.6799334759
C 6.8155915837 3.2175430811 32.2638212617
C 10.4322905244 3.2175712397 19.4791247164
C 6.8154869695 14.0301515066 19.479244957
C 10.4322703619 14.0301271494 32.2640659686
C 6.8154381861 15.0162780915 20.4653662124
C 10.4322561498 2.2314840002 20.4652901535
C 6.8155662985 2.2313534282 31.2777709288
C 10.4322049448 15.0161483405 31.2778345452
C 15.0161900903 3.217604683 24.0631021108
C 2.2314608779 3.2175694528 27.6797822136
C 2.2313505133 14.0300365886 24.0632478194
C 15.0161764371 14.0301096878 27.6799134341
C 3.2175830302 6.815513631 32.2638165116
C 3.2176312755 10.4322801551 19.4789946308
C 14.0301254177 6.8155718868 19.4791791777
C 14.0301186394 10.4322413375 32.2639919725
C 6.9535851363 1.4936083907 27.541868542
C 10.294158352 15.753851173 27.5418015553
C 10.2942094121 1.4937931411 24.2012832253
C 6.9535491266 15.7540722091 24.2012166733
C 10.2941215247 6.9535679576 18.7414631888
C 10.2940989613 10.2942296506 33.0018689377
C 6.9535665019 10.2941249432 18.7414394525
C 6.9535661363 6.9534976387 33.0016018605
C 1.4937162647 10.2942927461 24.2012949606
C 15.7537604052 10.2940625755 27.5418377169
C 1.4936826351 6.9536278037 27.5418237842
C 15.7541635874 6.9535833771 24.2011696043
C 15.5774896736 10.1176002944 18.9180597088
C 1.6703957979 7.1301701935 18.91799048
C 1.6702599688 10.117527823 32.825026669
C 15.5772292643 7.1301371159 32.8252307886
C 1.6702779754 15.5773483321 27.3652926433
C 1.6703427681 1.6702510517 24.377741843
C 15.5775565463 1.6704497521 27.3651766732
C 15.577398892 15.5773469454 24.3778586376
C 10.117614503 1.6702515277 32.8251314591
C 7.1301471333 1.6703751455 18.9180274935
C 10.1175436564 15.5775345176 18.9181922884
C 7.1301936987 15.5773913065 32.8252098016
C 6.5036575671 17.368108667 10.7440318807
C 10.7439990929 34.3747738705 10.7439677986
C 10.744038804 17.3682870669 6.5036837008
C 6.5036289463 34.3749719466 6.5036861397
C 10.74402424 23.7514147122 0.1205611436
C 10.7439972439 27.9917828615 17.1273806381
C 6.5037191035 27.9917424536 0.1205345476
C 6.5036800133 23.7513293982 17.1271080244
C 0.1204916595 27.991784024 6.5036494193
C 17.1270004781 27.9916046479 10.7439990204
C 0.1204797896 23.7513418027 10.7439429068
C 17.1273768333 23.7514243157 6.5035795592
C 15.1275890349 25.9920962347 2.1202198705
C 2.1202474358 25.7511051508 2.1201122552
C 2.1201254083 25.9920171747 15.127461909
C 15.1274042051 25.75103339 15.127587148
C 2.120141121 32.3751365445 8.7443966452
C 2.1201785657 19.3678266605 8.5032633057
C 15.1275932537 19.3679508508 8.7442691122
C 15.1274957628 32.3752013097 8.5033629732
C 8.7444019368 19.3677940658 15.127522138
C 8.5033814214 19.3679272042 2.1201932332
C 8.7443223421 32.3753196875 2.1203183894
C 8.5033962544 32.3752011199 15.127619177
C 6.3922740834 32.686971166 11.8414446655
C 10.8551832622 19.0559381054 11.8413395787
C 10.8551965877 32.6871464096 5.4062710437
C 6.3923053638 19.0561588243 5.4063592933
C 11.8414538758 23.6401696999 15.4394297621
C 11.841441523 28.1030389917 1.8085202295
C 5.4063302481 28.1030369806 15.4393682361
C 5.4063159636 23.6401240245 1.8082826493
C 15.4392810145 29.0890819598 6.392288637
C 1.8081881664 29.0889816092 10.8552516045
C 15.4393750903 22.6538136308 10.855127421
C 1.808525973 22.6540049665 6.3922555456
C 15.4393321505 23.6398385648 11.8413510691
C 1.8082092224 28.1028171241 11.8413360361
C 15.4393548208 28.1029530153 5.4061663846
C 1.8085546973 23.6402003387 5.4062009973
C 6.3924245351 29.0892068193 15.4394310591
C 10.8553206815 29.089162917 1.8085418857
C 10.8553638007 22.6539893193 15.4394308694
C 6.3924287021 22.6539870047 1.8082874408
C 11.8413873963 32.6871276475 6.392346848
C 11.8413311722 19.0559698516 10.8552333564
C 5.406168413 32.6869922565 10.8552859032
C 5.4061965233 19.0561000303 6.392507224
C 15.0162935834 24.063234311 3.2175792392
C 2.2315447259 27.6799797136 3.2174732935
C 2.2313507065 24.0631520808 14.0300811118
C 15.0161642291 27.6798178888 14.0300759444
C 3.2175306766 32.2638270465 6.8155437213
C 3.2175211248 19.4790836531 10.4321527533
C 14.0300768275 19.4791484113 6.8154641646
C 14.0301248382 32.2640071574 10.4322334759
C 6.8155915837 20.4652430811 15.0161212617
C 10.4322905244 20.4652712397 2.2314247164
C 6.8154869695 31.2778515066 2.231544957
C 10.4322703619 31.2778271528 15.0163659686
C 6.8154381861 32.2639780915 3.217666209
C 10.4322561498 19.4791840002 3.2175901535
C 6.8155662985 19.4790534282 14.0300709322
C 10.4322049448 32.2638483371 14.0301345452
C 15.0161900903 20.465304683 6.8154021108
C 2.2314608779 20.4652694528 10.4320822136
C 2.2313505133 31.2777365886 6.8155478194
C 15.0161764371 31.2778096878 10.4322134376
C 3.2175830302 24.063213631 15.0161165116
C 3.2176312755 27.6799801551 2.2312946308
C 14.0301254177 24.0632718868 2.2314791777
C 14.0301186394 27.679941334 15.0162919725
C 6.9535851363 18.7413083907 10.2941685385
C 10.294158352 33.0015511695 10.2941015553
C 10.2942094121 18.7414931411 6.9535832287
C 6.9535491266 33.0017722091 6.9535166733
C 10.2941215247 24.2012679576 1.4937631888
C 10.2940989613 27.5419296506 15.7541689377
C 6.9535665019 27.5418249432 1.4937394525
C 6.9535661363 24.2011976387 15.7539018605
C 1.4937162647 27.5419927461 6.9535949606
C 15.7537604052 27.5417625755 10.2941377169
C 1.4936826351 24.2013278037 10.2941237842
C 15.7541635874 24.2012833771 6.9534696043
C 15.5774896736 27.3653002944 1.6703597122
C 1.6703957979 24.3778701935 1.67029048
C 1.6702599688 27.3652278264 15.577326669
C 15.5772292643 24.3778371159 15.5775307852
C 1.6702779754 32.8250483321 10.1175926433
C 1.6703427681 18.9179510517 7.130041843
C 15.5775565463 18.9181497556 10.1174766732
C 15.577398892 32.8250469454 7.1301586376
C 10.117614503 18.9179515277 15.5774314557
C 7.1301471333 18.9180751455 1.670327497
C 10.1175436564 32.825234521 1.6704922849
C 7.1301936987 32.8250913065 15.5775098016
C 6.5036575671 17.368108667 27.9917318773
C 10.7439990929 34.3747738705 27.9916677986
C 10.744038804 17.3682870669 23.7513837008
C 6.5036289463 34.3749719466 23.7513861397
C 10.74402424 23.7514147122 17.368261147
C 10.7439972439 27.9917828615 34.3750806416
C 6.5037191035 27.9917424536 17.3682345476
C 6.5036800133 23.7513293982 34.3748080244
C 0.1204916595 27.991784024 23.7513494193
C 17.1270004781 27.9916046479 27.9916990204
C 0.1204797896 23.7513418027 27.9916429068
C 17.1273768333 23.7514243157 23.7512795558
C 15.1275890349 25.9920962347 19.3679198705
C 2.1202474358 25.7511051508 19.3678122552
C 2.1201254083 25.9920171747 32.375161909
C 15.1274042051 25.75103339 32.375287148
C 2.120141121 32.3751365445 25.9920966452
C 2.1201785657 19.3678266605 25.7509633057
C 15.1275932537 19.3679508508 25.9919691122
C 15.1274957628 32.3752013097 25.7510629732
C 8.7444019368 19.3677940658 32.3752221414
C 8.5033814214 19.3679272042 19.3678932366
C 8.7443223421 32.3753196875 19.3680183894
C 8.5033962544 32.3752011199 32.375319177
C 6.3922740834 32.686971166 29.0891446655
C 10.8551832622 19.0559381054 29.0890395753
C 10.8551965877 32.6871464096 22.6539710437
C 6.3923053638 19.0561588243 22.6540592933
C 11.8414538758 23.6401696999 32.6871297621
C 11.841441523 28.1030389917 19.0562202295
C 5.4063302481 28.1030369806 32.6870682361
C 5.4063159636 23.6401240245 19.0559826493
C 15.4392810145 29.0890819598 23.639988637
C 1.8081881664 29.0889816092 28.102951601
C 15.4393750903 22.6538136308 28.102827421
C 1.808525973 22.6540049665 23.6399555456
C 15.4393321505 23.6398385648 29.0890510657
C 1.8082092224 28.1028171241 29.0890360361
C 15.4393548208 28.1029530153 22.6538663812
C 1.8085546973 23.6402003387 22.6539009939
C 6.3924245351 29.0892068193 32.6871310591
C 10.8553206815 29.089162917 19.0562418857
C 10.8553638007 22.6539893193 32.6871308694
C 6.3924287021 22.6539870047 19.0559874408
C 11.8413873963 32.6871276475 23.640046848
C 11.8413311722 19.0559698516 28.1029333564
C 5.406168413 32.6869922565 28.1029859032
C 5.4061965233 19.0561000303 23.640207224
C 15.0162935834 24.063234311 20.4652792357
C 2.2315447259 27.6799797136 20.4651732935
C 2.2313507065 24.0631520808 31.2777811118
C 15.0161642291 27.6798178888 31.2777759444
C 3.2175306766 32.2638270465 24.0632437213
C 3.2175211248 19.4790836531 27.6798527533
C 14.0300768275 19.4791484113 24.0631641646
C 14.0301248382 32.2640071574 27.6799334759
C 6.8155915837 20.4652430811 32.2638212617
C 10.4322905244 20.4652712397 19.4791247164
C 6.8154869695 31.2778515066 19.479244957
C 10.4322703619 31.2778271528 32.2640659686
C 6.8154381861 32.2639780915 20.4653662124
C 10.4322561498 19.4791840002 20.4652901535
C 6.8155662985 19.4790534282 31.2777709288
C 10.4322049448 32.2638483371 31.2778345452
C 15.0161900903 20.465304683 24.0631021108
C 2.2314608779 20.4652694528 27.6797822136
C 2.2313505133 31.2777365886 24.0632478194
C 15.0161764371 31.2778096878 27.6799134341
C 3.2175830302 24.063213631 32.2638165116
C 3.2176312755 27.6799801551 19.4789946308
C 14.0301254177 24.0632718868 19.4791791777
C 14.0301186394 27.679941334 32.2639919725
C 6.9535851363 18.7413083907 27.541868542
C 10.294158352 33.0015511695 27.5418015553
C 10.2942094121 18.7414931411 24.2012832253
C 6.9535491266 33.0017722091 24.2012166733
C 10.2941215247 24.2012679576 18.7414631888
C 10.2940989613 27.5419296506 33.0018689377
C 6.9535665019 27.5418249432 18.7414394525
C 6.9535661363 24.2011976387 33.0016018605
C 1.4937162647 27.5419927461 24.2012949606
C 15.7537604052 27.5417625755 27.5418377169
C 1.4936826351 24.2013278037 27.5418237842
C 15.7541635874 24.2012833771 24.2011696043
C 15.5774896736 27.3653002944 18.9180597088
C 1.6703957979 24.3778701935 18.91799048
C 1.6702599688 27.3652278264 32.825026669
C 15.5772292643 24.3778371159 32.8252307886
C 1.6702779754 32.8250483321 27.3652926433
C 1.6703427681 18.9179510517 24.377741843
C 15.5775565463 18.9181497556 27.3651766732
C 15.577398892 32.8250469454 24.3778586376
C 10.117614503 18.9179515277 32.8251314591
C 7.1301471333 18.9180751455 18.9180274935
C 10.1175436564 32.825234521 18.9181922884
C 7.1301936987 32.8250913065 32.8252098016
C 23.7513575671 0.120408667 10.7440318807
C 27.9916990929 17.1270738705 10.7439677986
C 27.991738804 0.1205870669 6.5036837008
C 23.7513289463 17.1272719466 6.5036861397
C 27.99172424 6.5037147122 0.1205611436
C 27.9916972405 10.7440828615 17.1273806381
C 23.7514191035 10.7440424536 0.1205345476
C 23.7513800133 6.5036293982 17.1271080244
C 17.3681916595 10.744084024 6.5036494193
C 34.3747004781 10.7439046479 10.7439990204
C 17.3681797862 6.5036418027 10.7439429068
C 34.3750768333 6.5037243157 6.5035795592
C 32.3752890349 8.7443962347 2.1202198705
C 19.3679474358 8.5034051508 2.1201122552
C 19.3678254083 8.7443171747 15.127461909
C 32.3751042051 8.5033333865 15.127587148
C 19.367841121 15.1274365445 8.7443966452
C 19.3678785657 2.1201266605 8.5032633057
C 32.3752932537 2.1202508508 8.7442691122
C 32.3751957628 15.1275013062 8.5033629732
C 25.9921019368 2.1200940658 15.127522138
C 25.7510814214 2.1202272042 2.1201932332
C 25.9920223421 15.1276196875 2.1203183894
C 25.7510962544 15.1275011199 15.127619177
C 23.6399740834 15.439271166 11.8414446655
C 28.1028832622 1.808238102 11.8413395787
C 28.1028965912 15.4394464096 5.4062710437
C 23.6400053638 1.8084588208 5.4063592933
C 29.0891538792 6.3924696999 15.4394297621
C 29.089141523 10.8553389917 1.8085202295
C 22.6540302481 10.8553369806 15.4393682361
C 22.6540159636 6.392424028 1.8082826493
C 32.6869810179 11.8413819598 6.392288637
C 19.0558881664 11.8412816127 10.8552516045
C 32.6870750869 5.4061136308 10.855127421
C 19.056225973 5.4063049665 6.3922555456
C 32.6870321505 6.3921385648 11.8413510691
C 19.0559092224 10.8551171241 11.8413360361
C 32.6870548208 10.8552530153 5.4061663846
C 19.0562546973 6.3925003387 5.4062009973
C 23.6401245351 11.8415068193 15.4394310591
C 28.1030206815 11.841462917 1.8085418857
C 28.1030638042 5.4062893193 15.4394308694
C 23.6401286987 5.4062870047 1.8082874408
C 29.0890873928 15.4394276475 6.392346848
C 29.0890311757 1.8082698516 10.8552333564
C 22.653868413 15.4392922565 10.8552859032
C 22.6538965233 1.8084000303 6.392507224
C 32.2639935834 6.815534311 3.2175792392
C 19.4792447259 10.4322797136 3.2174732935
C 19.4790507065 6.8154520808 14.0300811118
C 32.2638642291 10.4321178888 14.0300759444
C 20.4652306766 15.0161270465 6.8155437213
C 20.4652211248 2.2313836531 10.4321527533
C 31.2777768275 2.2314484113 6.8154641646
C 31.2778248416 15.0163071574 10.4322334759
C 24.0632915837 3.2175430811 15.0161212617
C 27.6799905244 3.2175712397 2.2314247164
C 24.063186966 14.0301515066 2.231544957
C 27.6799703619 14.0301271494 15.0163659686
C 24.0631381861 15.0162780915 3.217666209
C 27.6799561498 2.2314840002 3.2175901535
C 24.0632662985 2.2313534282 14.0300709322
C 27.6799049448 15.0161483405 14.0301345452
C 32.2638900903 3.217604683 6.8154021108
C 19.4791608779 3.2175694528 10.4320822136
C 19.4790505133 14.0300365886 6.8155478194
C 32.2638764371 14.0301096878 10.4322134376
C 20.4652830302 6.815513631 15.0161165116
C 20.4653312755 10.4322801551 2.2312946308
C 31.2778254177 6.8155718868 2.2314791777
C 31.2778186428 10.4322413375 15.0162919725
C 24.2012851363 1.4936083907 10.2941685385
C 27.541858352 15.753851173 10.2941015553
C 27.5419094121 1.4937931411 6.9535832287
C 24.2012491266 15.7540722091 6.9535166733
C 27.5418215247 6.9535679576 1.4937631888
C 27.5417989613 10.2942296506 15.7541689377
C 24.2012665019 10.2941249432 1.4937394525
C 24.2012661363 6.9534976387 15.7539018605
C 18.7414162647 10.2942927461 6.9535949606
C 33.0014604052 10.2940625755 10.2941377169
C 18.7413826351 6.9536278037 10.2941237842
C 33.0018635874 6.9535833771 6.9534696043
C 32.8251896736 10.1176002944 1.6703597122
C 18.9180957979 7.1301701935 1.67029048
C 18.9179599688 10.117527823 15.577326669
C 32.8249292643 7.1301371159 15.5775307852
C 18.9179779754 15.5773483321 10.1175926433
C 18.9180427681 1.6702510517 7.130041843
C 32.8252565463 1.6704497521 10.1174766732
C 32.825098892 15.5773469454 7.1301586376
C 27.365314503 1.6702515277 15.5774314557
C 24.3778471333 1.6703751455 1.670327497
C 27.3652436564 15.5775345176 1.6704922849
C 24.3778936952 15.5773913065 15.5775098016
C 23.7513575671 0.120408667 27.9917318773
C 27.9916990929 17.1270738705 27.9916677986
C 27.991738804 0.1205870669 23.7513837008
C 23.7513289463 17.1272719466 23.7513861397
C 27.99172424 6.5037147122 17.368261147
C 27.9916972405 10.7440828615 34.3750806416
C 23.7514191035 10.7440424536 17.3682345476
C 23.7513800133 6.5036293982 34.3748080244
C 17.3681916595 10.744084024 23.7513494193
C 34.3747004781 10.7439046479 27.9916990204
C 17.3681797862 6.5036418027 27.9916429068
C 34.3750768333 6.5037243157 23.7512795558
C 32.3752890349 8.7443962347 19.3679198705
C 19.3679474358 8.5034051508 19.3678122552
C 19.3678254083 8.7443171747 32.375161909
C 32.3751042051 8.5033333865 32.375287148
C 19.367841121 15.1274365445 25.9920966452
C 19.3678785657 2.1201266605 25.7509633057
C 32.3752932537 2.1202508508 25.9919691122
C 32.3751957628 15.1275013062 25.7510629732
C 25.9921019368 2.1200940658 32.3752221414
C 25.7510814214 2.1202272042 19.3678932366
C 25.9920223421 15.1276196875 19.3680183894
C 25.7510962544 15.1275011199 32.375319177
C 23.6399740834 15.439271166 29.0891446655
C 28.1028832622 1.808238102 29.0890395753
C 28.1028965912 15.4394464096 22.6539710437
C 23.6400053638 1.8084588208 22.6540592933
C 29.0891538792 6.3924696999 32.6871297621
C 29.089141523 10.8553389917 19.0562202295
C 22.6540302481 10.8553369806 32.6870682361
C 22.6540159636 6.392424028 19.0559826493
C 32.6869810179 11.8413819598 23.639988637
C 19.0558881664 11.8412816127 28.102951601
C 32.6870750869 5.4061136308 28.102827421
C 19.056225973 5.4063049665 23.6399555456
C 32.6870321505 6.3921385648 29.0890510657
C 19.0559092224 10.8551171241 29.0890360361
C 32.6870548208 10.8552530153 22.6538663812
C 19.0562546973 6.3925003387 22.6539009939
C 23.6401245351 11.8415068193 32.6871310591
C 28.1030206815 11.841462917 19.0562418857
C 28.1030638042 5.4062893193 32.6871308694
C 23.6401286987 5.4062870047 19.0559874408
C 29.0890873928 15.4394276475 23.640046848
C 29.0890311757 1.8082698516 28.1029333564
C 22.653868413 15.4392922565 28.1029859032
C 22.6538965233 1.8084000303 23.640207224
C 32.2639935834 6.815534311 20.4652792357
C 19.4792447259 10.4322797136 20.4651732935
C 19.4790507065 6.8154520808 31.2777811118
C 32.2638642291 10.4321178888 31.2777759444
C 20.4652306766 15.0161270465 24.0632437213
C 20.4652211248 2.2313836531 27.6798527533
C 31.2777768275 2.2314484113 24.0631641646
C 31.2778248416 15.0163071574 27.6799334759
C 24.0632915837 3.2175430811 32.2638212617
C 27.6799905244 3.2175712397 19.4791247164
C 24.063186966 14.0301515066 19.479244957
C 27.6799703619 14.0301271494 32.2640659686
C 24.0631381861 15.0162780915 20.4653662124
C 27.6799561498 2.2314840002 20.4652901535
C 24.0632662985 2.2313534282 31.2777709288
C 27.6799049448 15.0161483405 31.2778345452
C 32.2638900903 3.217604683 24.0631021108
C 19.4791608779 3.2175694528 27.6797822136
C 19.4790505133 14.0300365886 24.0632478194
C 32.2638764371 14.0301096878 27.6799134341
C 20.4652830302 6.815513631 32.2638165116
C 20.4653312755 10.4322801551 19.4789946308
C 31.2778254177 6.8155718868 19.4791791777
C 31.2778186428 10.4322413375 32.2639919725
C 24.2012851363 1.4936083907 27.541868542
C 27.541858352 15.753851173 27.5418015553
C 27.5419094121 1.4937931411 24.2012832253
C 24.2012491266 15.7540722091 24.2012166733
C 27.5418215247 6.9535679576 18.7414631888
C 27.5417989613 10.2942296506 33.0018689377
C 24.2012665019 10.2941249432 18.7414394525
C 24.2012661363 6.9534976387 33.0016018605
C 18.7414162647 10.2942927461 24.2012949606
C 33.0014604052 10.2940625755 27.5418377169
C 18.7413826351 6.9536278037 27.5418237842
C 33.0018635874 6.9535833771 24.2011696043
C 32.8251896736 10.1176002944 18.9180597088
C 18.9180957979 7.1301701935 18.91799048
C 18.9179599688 10.117527823 32.825026669
C 32.8249292643 7.1301371159 32.8252307886
C 18.9179779754 15.5773483321 27.3652926433
C 18.9180427681 1.6702510517 24.377741843
C 32.8252565463 1.6704497521 27.3651766732
C 32.825098892 15.5773469454 24.3778586376
C 27.365314503 1.6702515277 32.8251314591
C 24.3778471333 1.6703751455 18.9180274935
C 27.3652436564 15.5775345176 18.9181922884
C 24.3778936952 15.5773913065 32.8252098016
C 23.7513575671 17.368108667 10.7440318807
C 27.9916990929 34.3747738705 10.7439677986
C 27.991738804 17.3682870669 6.5036837008
C 23.7513289463 34.3749719466 6.5036861397
C 27.99172424 23.7514147122 0.1205611436
C 27.9916972405 27.9917828615 17.1273806381
C 23.7514191035 27.9917424536 0.1205345476
C 23.7513800133 23.7513293982 17.1271080244
C 17.3681916595 27.991784024 6.5036494193
C 34.3747004781 27.9916046479 10.7439990204
C 17.3681797862 23.7513418027 10.7439429068
C 34.3750768333 23.7514243157 6.5035795592
C 32.3752890349 25.9920962347 2.1202198705
C 19.3679474358 25.7511051508 2.1201122552
C 19.3678254083 25.9920171747 15.127461909
C 32.3751042051 25.75103339 15.127587148
C 19.367841121 32.3751365445 8.7443966452
C 19.3678785657 19.3678266605 8.5032633057
C 32.3752932537 19.3679508508 8.7442691122
C 32.3751957628 32.3752013097 8.5033629732
C 25.9921019368 19.3677940658 15.127522138
C 25.7510814214 19.3679272042 2.1201932332
C 25.9920223421 32.3753196875 2.1203183894
C 25.7510962544 32.3752011199 15.127619177
C 23.6399740834 32.686971166 11.8414446655
C 28.1028832622 19.0559381054 11.8413395787
C 28.1028965912 32.6871464096 5.4062710437
C 23.6400053638 19.0561588243 5.4063592933
C 29.0891538792 23.6401696999 15.4394297621
C 29.089141523 28.1030389917 1.8085202295
C 22.6540302481 28.1030369806 15.4393682361
C 22.6540159636 23.6401240245 1.8082826493
C 32.6869810179 29.0890819598 6.392288637
C 19.0558881664 29.0889816092 10.8552516045
C 32.6870750869 22.6538136308 10.855127421
C 19.056225973 22.6540049665 6.3922555456
C 32.6870321505 23.6398385648 11.8413510691
C 19.0559092224 28.1028171241 11.8413360361
C 32.6870548208 28.1029530153 5.4061663846
C 19.0562546973 23.6402003387 5.4062009973
C 23.6401245351 29.0892068193 15.4394310591
C 28.1030206815 29.089162917 1.8085418857
C 28.1030638042 22.6539893193 15.4394308694
C 23.6401286987 22.6539870047 1.8082874408
C 29.0890873928 32.6871276475 6.392346848
C 29.0890311757 19.0559698516 10.8552333564
C 22.653868413 32.6869922565 10.8552859032
C 22.6538965233 19.0561000303 6.392507224
C 32.2639935834 24.063234311 3.2175792392
C 19.4792447259 27.6799797136 3.2174732935
C 19.4790507065 24.0631520808 14.0300811118
C 32.2638642291 27.6798178888 14.0300759444
C 20.4652306766 32.2638270465 6.8155437213
C 20.4652211248 19.4790836531 10.4321527533
C 31.2777768275 19.4791484113 6.8154641646
C 31.2778248416 32.2640071574 10.4322334759
C 24.0632915837 20.4652430811 15.0161212617
C 27.6799905244 20.4652712397 2.2314247164
C 24.063186966 31.2778515066 2.231544957
C 27.6799703619 31.2778271528 15.0163659686
C 24.0631381861 32.2639780915 3.217666209
C 27.6799561498 19.4791840002 3.2175901535
C 24.0632662985 19.4790534282 14.0300709322
C 27.6799049448 32.2638483371 14.0301345452
C 32.2638900903 20.465304683 6.8154021108
C 19.4791608779 20.4652694528 10.4320822136
C 19.4790505133 31.2777365886 6.8155478194
C 32.2638764371 31.2778096878 10.4322134376
C 20.4652830302 24.063213631 15.0161165116
C 20.4653312755 27.6799801551 2.2312946308
C 31.2778254177 24.0632718868 2.2314791777
C 31.2778186428 27.679941334 15.0162919725
C 24.2012851363 18.7413083907 10.2941685385
C 27.541858352 33.0015511695 10.2941015553
C 27.5419094121 18.7414931411 6.9535832287
C 24.2012491266 33.0017722091 6.9535166733
C 27.5418215247 24.2012679576 1.4937631888
C 27.5417989613 27.5419296506 15.7541689377
C 24.2012665019 27.5418249432 1.4937394525
C 24.2012661363 24.2011976387 15.7539018605
C 18.7414162647 27.5419927461 6.9535949606
C 33.0014604052 27.5417625755 10.2941377169
C 18.7413826351 24.2013278037 10.2941237842
C 33.0018635874 24.2012833771 6.9534696043
C 32.8251896736 27.3653002944 1.6703597122
C 18.9180957979 24.3778701935 1.67029048
C 18.9179599688 27.3652278264 15.577326669
C 32.8249292643 24.3778371159 15.5775307852
C 18.9179779754 32.8250483321 10.1175926433
C 18.9180427681 18.9179510517 7.130041843
C 32.8252565463 18.9181497556 10.1174766732
C 32.825098892 32.8250469454 7.1301586376
C 27.365314503 18.9179515277 15.5774314557
C 24.3778471333 18.9180751455 1.670327497
C 27.3652436564 32.825234521 1.6704922849
C 24.3778936952 32.8250913065 15.5775098016
C 23.7513575671 17.368108667 27.9917318773
C 27.9916990929 34.3747738705 27.9916677986
C 27.991738804 17.3682870669 23.7513837008
C 23.7513289463 34.3749719466 23.7513861397
C 27.99172424 23.7514147122 17.368261147
C 27.9916972405 27.9917828615 34.3750806416
C 23.7514191035 27.9917424536 17.3682345476
C 23.7513800133 23.7513293982 34.3748080244
C 17.3681916595 27.991784024 23.7513494193
C 34.3747004781 27.9916046479 27.9916990204
C 17.3681797862 23.7513418027 27.9916429068
C 34.3750768333 23.7514243157 23.7512795558
C 32.3752890349 25.9920962347 19.3679198705
C 19.3679474358 25.7511051508 19.3678122552
C 19.3678254083 25.9920171747 32.375161909
C 32.3751042051 25.75103339 32.375287148
C 19.367841121 32.3751365445 25.9920966452
C 19.3678785657 19.3678266605 25.7509633057
C 32.3752932537 19.3679508508 25.9919691122
C 32.3751957628 32.3752013097 25.7510629732
C 25.9921019368 19.3677940658 32.3752221414
C 25.7510814214 19.3679272042 19.3678932366
C 25.9920223421 32.3753196875 19.3680183894
C 25.7510962544 32.3752011199 32.375319177
C 23.6399740834 32.686971166 29.0891446655
C 28.1028832622 19.0559381054 29.0890395753
C 28.1028965912 32.6871464096 22.6539710437
C 23.6400053638 19.0561588243 22.6540592933
C 29.0891538792 23.6401696999 32.6871297621
C 29.089141523 28.1030389917 19.0562202295
C 22.6540302481 28.1030369806 32.6870682361
C 22.6540159636 23.6401240245 19.0559826493
C 32.6869810179 29.0890819598 23.639988637
C 19.0558881664 29.0889816092 28.102951601
C 32.6870750869 22.6538136308 28.102827421
C 19.056225973 22.6540049665 23.6399555456
C 32.6870321505 23.6398385648 29.0890510657
C 19.0559092224 28.1028171241 29.0890360361
C 32.6870548208 28.1029530153 22.6538663812
C 19.0562546973 23.6402003387 22.6539009939
C 23.6401245351 29.0892068193 32.6871310591
C 28.1030206815 29.089162917 19.0562418857
C 28.1030638042 22.6539893193 32.6871308694
C 23.6401286987 22.6539870047 19.0559874408
C 29.0890873928 32.6871276475 23.640046848
C 29.0890311757 19.0559698516 28.1029333564
C 22.653868413 32.6869922565 28.1029859032
C 22.6538965233 19.0561000303 23.640207224
C 32.2639935834 24.063234311 20.4652792357
C 19.4792447259 27.6799797136 20.4651732935
C 19.4790507065 24.0631520808 31.2777811118
C 32.2638642291 27.6798178888 31.2777759444
C 20.4652306766 32.2638270465 24.0632437213
C 20.4652211248 19.4790836531 27.6798527533
C 31.2777768275 19.4791484113 24.0631641646
C 31.2778248416 32.2640071574 27.6799334759
C 24.0632915837 20.4652430811 32.2638212617
C 27.6799905244 20.4652712397 19.4791247164
C 24.063186966 31.2778515066 19.479244957
C 27.6799703619 31.2778271528 32.2640659686
C 24.0631381861 32.2639780915 20.4653662124
C 27.6799561498 19.4791840002 20.4652901535
C 24.0632662985 19.4790534282 31.2777709288
C 27.6799049448 32.2638483371 31.2778345452
C 32.2638900903 20.465304683 24.0631021108
C 19.4791608779 20.4652694528 27.6797822136
C 19.4790505133 31.2777365886 24.0632478194
C 32.2638764371 31.2778096878 27.6799134341
C 20.4652830302 24.063213631 32.2638165116
C 20.4653312755 27.6799801551 19.4789946308
C 31.2778254177 24.0632718868 19.4791791777
C 31.2778186428 27.679941334 32.2639919725
C 24.2012851363 18.7413083907 27.541868542
C 27.541858352 33.0015511695 27.5418015553
C 27.5419094121 18.7414931411 24.2012832253
C 24.2012491266 33.0017722091 24.2012166733
C 27.5418215247 24.2012679576 18.7414631888
C 27.5417989613 27.5419296506 33.0018689377
C 24.2012665019 27.5418249432 18.7414394525
C 24.2012661363 24.2011976387 33.0016018605
C 18.7414162647 27.5419927461 24.2012949606
C 33.0014604052 27.5417625755 27.5418377169
C 18.7413826351 24.2013278037 27.5418237842
C 33.0018635874 24.2012833771 24.2011696043
C 32.8251896736 27.3653002944 18.9180597088
C 18.9180957979 24.3778701935 18.91799048
C 18.9179599688 27.3652278264 32.825026669
C 32.8249292643 24.3778371159 32.8252307886
C 18.9179779754 32.8250483321 27.3652926433
C 18.9180427681 18.9179510517 24.377741843
C 32.8252565463 18.9181497556 27.3651766732
C 32.825098892 32.8250469454 24.3778586376
C 27.365314503 18.9179515277 32.8251314591
C 24.3778471333 18.9180751455 18.9180274935
C 27.3652436564 32.825234521 18.9181922884
C 24.3778936952 32.8250913065 32.8252098016
Zn 8.6238463504 -1.5904304495e-04 12.9357967838
Zn 8.6237767214 1.5681609715e-04 4.31199931
Zn 12.9357525538 8.6239741076 1.2673959275e-04
Zn 4.3119773778 8.6238438564 -1.017853594e-04
Zn -1.365468904e-04 12.9357270583 8.6238764476
Zn 1.1251926891e-04 4.3119706616 8.6236518308
Zn -1.7477512255e-04 8.6237034739 12.9357706501
Zn 1.5616825623e-04 8.6239182491 4.3119119573
Zn 8.6239027538 12.935860828 1.859293081e-04
Zn 8.623889956 4.3119035025 -2.7459185405e-05
Zn 12.9358452395 2.609909377e-05 8.6238515661
Zn 4.311881215 -6.9592510106e-05 8.6238636981
Zn 8.6238463504 -1.5904304495e-04 30.1834967838
Zn 8.6237767214 1.5681609715e-04 21.55969931
Zn 12.9357525538 8.6239741076 17.2478267395
Zn 4.3119773778 8.6238438564 17.2475982144
Zn -1.365468904e-04 12.9357270583 25.8715764442
Zn 1.1251926891e-04 4.3119706616 25.8713518308
Zn -1.7477512255e-04 8.6237034739 30.1834706501
Zn 1.5616825623e-04 8.6239182491 21.5596119573
Zn 8.6239027538 12.935860828 17.2478859302
Zn 8.623889956 4.3119035025 17.2476725417
Zn 12.9358452395 2.609909377e-05 25.8715515661
Zn 4.311881215 -6.9592510106e-05 25.8715636981
Zn 8.6238463504 17.2475409555 12.9357967838
Zn 8.6237767214 17.2478568161 4.31199931
Zn 12.9357525538 25.8716741076 1.2673959275e-04
Zn 4.3119773778 25.8715438564 -1.017853594e-04
Zn -1.365468904e-04 30.1834270583 8.6238764476
Zn 1.1251926891e-04 21.5596706581 8.6236518308
Zn -1.7477512255e-04 25.8714034739 12.9357706501
Zn 1.5616825623e-04 25.8716182491 4.3119119573
Zn 8.6239027538 30.183560828 1.859293081e-04
Zn 8.623889956 21.5596035025 -2.7459185405e-05
Zn 12.9358452395 17.2477260992 8.6238515661
Zn 4.311881215 17.247630409 8.6238636981
Zn 8.6238463504 17.2475409555 30.1834967838
Zn 8.6237767214 17.2478568161 21.55969931
Zn 12.9357525538 25.8716741076 17.2478267395
Zn 4.3119773778 25.8715438564 17.2475982144
Zn -1.365468904e-04 30.1834270583 25.8715764442
Zn 1.1251926891e-04 21.5596706581 25.8713518308
Zn -1.7477512255e-04 25.8714034739 30.1834706501
Zn 1.5616825623e-04 25.8716182491 21.5596119573
Zn 8.6239027538 30.183560828 17.2478859302
Zn 8.623889956 21.5596035025 17.2476725417
Zn 12.9358452395 17.2477260992 25.8715515661
Zn 4.311881215 17.247630409 25.8715636981
Zn 25.8715463504 -1.5904304495e-04 12.9357967838
Zn 25.8714767249 1.5681609715e-04 4.31199931
Zn 30.1834525538 8.6239741076 1.2673959275e-04
Zn 21.5596773744 8.6238438564 -1.017853594e-04
Zn 17.2475634534 12.9357270583 8.6238764476
Zn 17.2478125205 4.3119706616 8.6236518308
Zn 17.2475252256 8.6237034739 12.9357706501
Zn 17.2478561676 8.6239182491 4.3119119573
Zn 25.8716027538 12.935860828 1.859293081e-04
Zn 25.871589956 4.3119035025 -2.7459185405e-05
Zn 30.1835452395 2.609909377e-05 8.6238515661
Zn 21.559581215 -6.9592510106e-05 8.6238636981
Zn 25.8715463504 -1.5904304495e-04 30.1834967838
Zn 25.8714767249 1.5681609715e-04 21.55969931
Zn 30.1834525538 8.6239741076 17.2478267395
Zn 21.5596773744 8.6238438564 17.2475982144
Zn 17.2475634534 12.9357270583 25.8715764442
Zn 17.2478125205 4.3119706616 25.8713518308
Zn 17.2475252256 8.6237034739 30.1834706501
Zn 17.2478561676 8.6239182491 21.5596119573
Zn 25.8716027538 12.935860828 17.2478859302
Zn 25.871589956 4.3119035025 17.2476725417
Zn 30.1835452395 2.609909377e-05 25.8715515661
Zn 21.559581215 -6.9592510106e-05 25.8715636981
Zn 25.8715463504 17.2475409555 12.9357967838
Zn 25.8714767249 17.2478568161 4.31199931
Zn 30.1834525538 25.8716741076 1.2673959275e-04
Zn 21.5596773744 25.8715438564 -1.017853594e-04
Zn 17.2475634534 30.1834270583 8.6238764476
Zn 17.2478125205 21.5596706581 8.6236518308
Zn 17.2475252256 25.8714034739 12.9357706501
Zn 17.2478561676 25.8716182491 4.3119119573
Zn 25.8716027538 30.183560828 1.859293081e-04
Zn 25.871589956 21.5596035025 -2.7459185405e-05
Zn 30.1835452395 17.2477260992 8.6238515661
Zn 21.559581215 17.247630409 8.6238636981
Zn 25.8715463504 17.2475409555 30.1834967838
Zn 25.8714767249 17.2478568161 21.55969931
Zn 30.1834525538 25.8716741076 17.2478267395
Zn 21.5596773744 25.8715438564 17.2475982144
Zn 17.2475634534 30.1834270583 25.8715764442
Zn 17.2478125205 21.5596706581 25.8713518308
Zn 17.2475252256 25.8714034739 30.1834706501
Zn 17.2478561676 25.8716182491 21.5596119573
Zn 25.8716027538 30.183560828 17.2478859302
Zn 25.871589956 21.5596035025 17.2476725417
Zn 30.1835452395 17.2477260992 25.8715515661
Zn 21.559581215 17.247630409 25.8715636981
N 7.0791951991 16.659920844 11.7691278708
N 10.1683635043 0.5875350804 11.7690218009
N 10.1683595787 16.660126026 5.4786451249
N 7.0791956959 0.5878023852 5.4786359147
N 11.769082599 7.0793518255 16.6600890539
N 11.7690804189 10.1684873876 0.5878432933
N 5.4786764295 10.1684280107 16.6600119463
N 5.4786335655 7.0792580877 0.5875927084
N 16.6599447493 11.7691175774 7.07920423
N 0.5874738373 11.7689990546 10.1684327331
N 16.6600398945 5.4785983354 10.1682439191
N 0.5878339382 5.4786116954 7.0791115236
N 16.6599803761 7.0790804536 11.7690823472
N 0.5875167426 10.1682565478 11.7690161126
N 16.6600632755 10.1684437199 5.4785628603
N 0.587889086 7.0793792252 5.4785705942
N 7.0792945873 11.7691619143 16.660108223
N 10.1684267723 11.7691439491 0.5878774507
N 10.1684745484 5.4786109538 16.6600898335
N 7.079275532 5.4785734642 0.5876013599
N 11.7691291437 16.660091441 7.0792248272
N 11.7690632678 0.5875887483 10.1683887169
N 5.478569511 16.6599553394 10.1684135812
N 5.4785547918 0.5877023727 7.0793197379
N 15.7031962786 8.0361939166 3.1452645866
N 1.5446999691 9.2115833669 3.1452022017
N 1.5444399049 8.0360944457 14.1024666076
N 15.7029597747 9.2114121282 14.1024235125
N 3.1452379044 15.7029923315 8.0362147657
N 3.145185292 1.5444888055 9.2115021336
N 14.1024884018 1.5446122025 8.0361520082
N 14.1024867011 15.7031686582 9.2115626938
N 8.0362555289 3.1452315642 15.7030248675
N 9.2116022876 3.1452461316 1.5445563648
N 8.0361834335 14.1025211138 1.5447135948
N 9.2116217395 14.1025087851 15.7032853492
N 8.0360992785 15.7031953749 3.1453604114
N 9.2115427589 1.5446585195 3.1452885264
N 8.0362114679 1.544437604 14.1024866287
N 9.2115219443 15.7029987097 14.1024577699
N 15.7031325691 3.1453159054 8.0360393048
N 1.5446264456 3.145248598 9.2113863912
N 1.5444828551 14.1023973684 8.0362186912
N 15.7030259852 14.1023987793 9.2115318031
N 3.1452898476 8.0361945617 15.7029678949
N 3.1452788677 9.2115972133 1.5444505984
N 14.1024803574 8.0362485608 1.5446317269
N 14.1024326331 9.2116110736 15.7032263103
N 7.0791951991 16.659920844 29.0168278708
N 10.1683635043 0.5875350804 29.0167217974
N 10.1683595787 16.660126026 22.7263451249
N 7.0791956959 0.5878023852 22.7263359147
N 11.769082599 7.0793518255 33.9077890504
N 11.7690804189 10.1684873876 17.8355432933
N 5.4786764295 10.1684280107 33.9077119463
N 5.4786335655 7.0792580877 17.835292705
N 16.6599447493 11.7691175774 24.32690423
N 0.5874738373 11.7689990546 27.4161327331
N 16.6600398945 5.4785983354 27.4159439191
N 0.5878339382 5.4786116954 24.3268115236
N 16.6599803761 7.0790804536 29.0167823472
N 0.5875167426 10.1682565478 29.0167161126
N 16.6600632755 10.1684437199 22.7262628603
N 0.587889086 7.0793792252 22.7262705942
N 7.0792945873 11.7691619143 33.907808223
N 10.1684267723 11.7691439491 17.8355774507
N 10.1684745484 5.4786109538 33.9077898335
N 7.079275532 5.4785734642 17.8353013599
N 11.7691291437 16.660091441 24.3269248272
N 11.7690632678 0.5875887483 27.4160887204
N 5.478569511 16.6599553394 27.4161135812
N 5.4785547918 0.5877023727 24.3270197379
N 15.7031962786 8.0361939166 20.3929645866
N 1.5446999691 9.2115833669 20.3929022017
N 1.5444399049 8.0360944457 31.3501666076
N 15.7029597747 9.2114121282 31.3501235125
N 3.1452379044 15.7029923315 25.2839147657
N 3.145185292 1.5444888055 26.4592021371
N 14.1024884018 1.5446122025 25.2838520047
N 14.1024867011 15.7031686582 26.4592626903
N 8.0362555289 3.1452315642 32.9507248675
N 9.2116022876 3.1452461316 18.7922563648
N 8.0361834335 14.1025211138 18.7924135914
N 9.2116217395 14.1025087851 32.9509853458
N 8.0360992785 15.7031953749 20.3930604114
N 9.2115427589 1.5446585195 20.3929885264
N 8.0362114679 1.544437604 31.3501866287
N 9.2115219443 15.7029987097 31.3501577699
N 15.7031325691 3.1453159054 25.2837393048
N 1.5446264456 3.145248598 26.4590863878
N 1.5444828551 14.1023973684 25.2839186912
N 15.7030259852 14.1023987793 26.4592318031
N 3.1452898476 8.0361945617 32.9506678915
N 3.1452788677 9.2115972133 18.7921505984
N 14.1024803574 8.0362485608 18.7923317269
N 14.1024326331 9.2116110736 32.9509263103
N 7.0791951991 33.907620844 11.7691278708
N 10.1683635043 17.8352350804 11.7690218009
N 10.1683595787 33.907826026 5.4786451249
N 7.0791956959 17.8355023852 5.4786359147
N 11.769082599 24.3270518255 16.6600890539
N 11.7690804189 27.4161873841 0.5878432933
N 5.4786764295 27.4161280107 16.6600119463
N 5.4786335655 24.3269580843 0.5875927084
N 16.6599447493 29.0168175774 7.07920423
N 0.5874738373 29.0166990546 10.1684327331
N 16.6600398945 22.7262983354 10.1682439191
N 0.5878339382 22.7263116954 7.0791115236
N 16.6599803761 24.3267804536 11.7690823472
N 0.5875167426 27.4159565478 11.7690161126
N 16.6600632755 27.4161437199 5.4785628603
N 0.587889086 24.3270792252 5.4785705942
N 7.0792945873 29.0168619143 16.660108223
N 10.1684267723 29.0168439491 0.5878774507
N 10.1684745484 22.7263109572 16.6600898335
N 7.079275532 22.7262734642 0.5876013599
N 11.7691291437 33.907791441 7.0792248272
N 11.7690632678 17.8352887483 10.1683887169
N 5.478569511 33.9076553394 10.1684135812
N 5.4785547918 17.8354023762 7.0793197379
N 15.7031962786 25.2838939201 3.1452645866
N 1.5446999691 26.4592833634 3.1452022017
N 1.5444399049 25.2837944457 14.1024666076
N 15.7029597747 26.4591121248 14.1024235125
N 3.1452379044 32.9506923315 8.0362147657
N 3.145185292 18.7921888055 9.2115021336
N 14.1024884018 18.7923122059 8.0361520082
N 14.1024867011 32.9508686582 9.2115626938
N 8.0362555289 20.3929315642 15.7030248675
N 9.2116022876 20.3929461316 1.5445563648
N 8.0361834335 31.3502211138 1.5447135948
N 9.2116217395 31.3502087886 15.7032853492
N 8.0360992785 32.9508953749 3.1453604114
N 9.2115427589 18.792358516 3.1452885264
N 8.0362114679 18.792137604 14.1024866287
N 9.2115219443 32.9506987097 14.1024577699
N 15.7031325691 20.3930159054 8.0360393048
N 1.5446264456 20.392948598 9.2113863912
N 1.5444828551 31.3500973684 8.0362186912
N 15.7030259852 31.3500987793 9.2115318031
N 3.1452898476 25.2838945617 15.7029678949
N 3.1452788677 26.4592972133 1.5444505984
N 14.1024803574 25.2839485608 1.5446317269
N 14.1024326331 26.4593110701 15.7032263103
N 7.0791951991 33.907620844 29.0168278708
N 10.1683635043 17.8352350804 29.0167217974
N 10.1683595787 33.907826026 22.7263451249
N 7.0791956959 17.8355023852 22.7263359147
N 11.769082599 24.3270518255 33.9077890504
N 11.7690804189 27.4161873841 17.8355432933
N 5.4786764295 27.4161280107 33.9077119463
N 5.4786335655 24.3269580843 17.835292705
N 16.6599447493 29.0168175774 24.32690423
N 0.5874738373 29.0166990546 27.4161327331
N 16.6600398945 22.7262983354 27.4159439191
N 0.5878339382 22.7263116954 24.3268115236
N 16.6599803761 24.3267804536 29.0167823472
N 0.5875167426 27.4159565478 29.0167161126
N 16.6600632755 27.4161437199 22.7262628603
N 0.587889086 24.3270792252 22.7262705942
N 7.0792945873 29.0168619143 33.907808223
N 10.1684267723 29.0168439491 17.8355774507
N 10.1684745484 22.7263109572 33.9077898335
N 7.079275532 22.7262734642 17.8353013599
N 11.7691291437 33.907791441 24.3269248272
N 11.7690632678 17.8352887483 27.4160887204
N 5.478569511 33.9076553394 27.4161135812
N 5.4785547918 17.8354023762 24.3270197379
N 15.7031962786 25.2838939201 20.3929645866
N 1.5446999691 26.4592833634 20.3929022017
N 1.5444399049 25.2837944457 31.3501666076
N 15.7029597747 26.4591121248 31.3501235125
N 3.1452379044 32.9506923315 25.2839147657
N 3.145185292 18.7921888055 26.4592021371
N 14.1024884018 18.7923122059 25.2838520047
N 14.1024867011 32.9508686582 26.4592626903
N 8.0362555289 20.3929315642 32.9507248675
N 9.2116022876 20.3929461316 18.7922563648
N 8.0361834335 31.3502211138 18.7924135914
N 9.2116217395 31.3502087886 32.9509853458
N 8.0360992785 32.9508953749 20.3930604114
N 9.2115427589 18.792358516 20.3929885264
N 8.0362114679 18.792137604 31.3501866287
N 9.2115219443 32.9506987097 31.3501577699
N 15.7031325691 20.3930159054 25.2837393048
N 1.5446264456 20.392948598 26.4590863878
N 1.5444828551 31.3500973684 25.2839186912
N 15.7030259852 31.3500987793 26.4592318031
N 3.1452898476 25.2838945617 32.9506678915
N 3.1452788677 26.4592972133 18.7921505984
N 14.1024803574 25.2839485608 18.7923317269
N 14.1024326331 26.4593110701 32.9509263103
N 24.3268951991 16.659920844 11.7691278708
N 27.4160635077 0.5875350804 11.7690218009
N 27.4160595787 16.660126026 5.4786451249
N 24.3268956959 0.5878023852 5.4786359147
N 29.016782599 7.0793518255 16.6600890539
N 29.0167804189 10.1684873876 0.5878432933
N 22.7263764295 10.1684280107 16.6600119463
N 22.7263335655 7.0792580877 0.5875927084
N 33.9076447493 11.7691175774 7.07920423
N 17.8351738373 11.7689990546 10.1684327331
N 33.9077398945 5.4785983354 10.1682439191
N 17.8355339382 5.4786116954 7.0791115236
N 33.9076803761 7.0790804536 11.7690823472
N 17.8352167426 10.1682565478 11.7690161126
N 33.907763272 10.1684437199 5.4785628603
N 17.835589086 7.0793792252 5.4785705942
N 24.3269945873 11.7691619143 16.660108223
N 27.4161267723 11.7691439491 0.5878774507
N 27.4161745484 5.4786109538 16.6600898335
N 24.3269755286 5.4785734642 0.5876013599
N 29.0168291437 16.660091441 7.0792248272
N 29.0167632678 0.5875887483 10.1683887169
N 22.726269511 16.6599553394 10.1684135812
N 22.7262547884 0.5877023727 7.0793197379
N 32.9508962786 8.0361939166 3.1452645866
N 18.7923999691 9.2115833669 3.1452022017
N 18.7921399049 8.0360944457 14.1024666076
N 32.9506597747 9.2114121282 14.1024235125
N 20.3929379044 15.7029923315 8.0362147657
N 20.392885292 1.5444888055 9.2115021336
N 31.3501884052 1.5446122025 8.0361520082
N 31.3501867046 15.7031686582 9.2115626938
N 25.2839555289 3.1452315642 15.7030248675
N 26.4593022876 3.1452461316 1.5445563648
N 25.2838834335 14.1025211138 1.5447135948
N 26.4593217395 14.1025087851 15.7032853492
N 25.2837992785 15.7031953749 3.1453604114
N 26.4592427589 1.5446585195 3.1452885264
N 25.2839114645 1.544437604 14.1024866287
N 26.4592219443 15.7029987097 14.1024577699
N 32.9508325691 3.1453159054 8.0360393048
N 18.7923264491 3.145248598 9.2113863912
N 18.7921828551 14.1023973684 8.0362186912
N 32.9507259852 14.1023987793 9.2115318031
N 20.3929898476 8.0361945617 15.7029678949
N 20.3929788712 9.2115972133 1.5444505984
N 31.3501803574 8.0362485608 1.5446317269
N 31.3501326331 9.2116110736 15.7032263103
N 24.3268951991 16.659920844 29.0168278708
N 27.4160635077 0.5875350804 29.0167217974
N 27.4160595787 16.660126026 22.7263451249
N 24.3268956959 0.5878023852 22.7263359147
N 29.016782599 7.0793518255 33.9077890504
N 29.0167804189 10.1684873876 17.8355432933
N 22.7263764295 10.1684280107 33.9077119463
N 22.7263335655 7.0792580877 17.835292705
N 33.9076447493 11.7691175774 24.32690423
N 17.8351738373 11.7689990546 27.4161327331
N 33.9077398945 5.4785983354 27.4159439191
N 17.8355339382 5.4786116954 24.3268115236
N 33.9076803761 7.0790804536 29.0167823472
N 17.8352167426 10.1682565478 29.0167161126
N 33.907763272 10.1684437199 22.7262628603
N 17.835589086 7.0793792252 22.7262705942
N 24.3269945873 11.7691619143 33.907808223
N 27.4161267723 11.7691439491 17.8355774507
N 27.4161745484 5.4786109538 33.9077898335
N 24.3269755286 5.4785734642 17.8353013599
N 29.0168291437 16.660091441 24.3269248272
N 29.0167632678 0.5875887483 27.4160887204
N 22.726269511 16.6599553394 27.4161135812
N 22.7262547884 0.5877023727 24.3270197379
N 32.9508962786 8.0361939166 20.3929645866
N 18.7923999691 9.2115833669 20.3929022017
N 18.7921399049 8.0360944457 31.3501666076
N 32.9506597747 9.2114121282 31.3501235125
N 20.3929379044 15.7029923315 25.2839147657
N 20.392885292 1.5444888055 26.4592021371
N 31.3501884052 1.5446122025 25.2838520047
N 31.3501867046 15.7031686582 26.4592626903
N 25.2839555289 3.1452315642 32.9507248675
N 26.4593022876 3.1452461316 18.7922563648
N 25.2838834335 14.1025211138 18.7924135914
N 26.4593217395 14.1025087851 32.9509853458
N 25.2837992785 15.7031953749 20.3930604114
N 26.4592427589 1.5446585195 20.3929885264
N 25.2839114645 1.544437604 31.3501866287
N 26.4592219443 15.7029987097 31.3501577699
N 32.9508325691 3.1453159054 25.2837393048
N 18.7923264491 3.145248598 26.4590863878
N 18.7921828551 14.1023973684 25.2839186912
N 32.9507259852 14.1023987793 26.4592318031
N 20.3929898476 8.0361945617 32.9506678915
N 20.3929788712 9.2115972133 18.7921505984
N 31.3501803574 8.0362485608 18.7923317269
N 31.3501326331 9.2116110736 32.9509263103
N 24.3268951991 33.907620844 11.7691278708
N 27.4160635077 17.8352350804 11.7690218009
N 27.4160595787 33.907826026 5.4786451249
N 24.3268956959 17.8355023852 5.4786359147
N 29.016782599 24.3270518255 16.6600890539
N 29.0167804189 27.4161873841 0.5878432933
N 22.7263764295 27.4161280107 16.6600119463
N 22.7263335655 24.3269580843 0.5875927084
N 33.9076447493 29.0168175774 7.07920423
N 17.8351738373 29.0166990546 10.1684327331
N 33.9077398945 22.7262983354 10.1682439191
N 17.8355339382 22.7263116954 7.0791115236
N 33.9076803761 24.3267804536 11.7690823472
N 17.8352167426 27.4159565478 11.7690161126
N 33.907763272 27.4161437199 5.4785628603
N 17.835589086 24.3270792252 5.4785705942
N 24.3269945873 29.0168619143 16.660108223
N 27.4161267723 29.0168439491 0.5878774507
N 27.4161745484 22.7263109572 16.6600898335
N 24.3269755286 22.7262734642 0.5876013599
N 29.0168291437 33.907791441 7.0792248272
N 29.0167632678 17.8352887483 10.1683887169
N 22.726269511 33.9076553394 10.1684135812
N 22.7262547884 17.8354023762 7.0793197379
N 32.9508962786 25.2838939201 3.1452645866
N 18.7923999691 26.4592833634 3.1452022017
N 18.7921399049 25.2837944457 14.1024666076
N 32.9506597747 26.4591121248 14.1024235125
N 20.3929379044 32.9506923315 8.0362147657
N 20.392885292 18.7921888055 9.2115021336
N 31.3501884052 18.7923122059 8.0361520082
N 31.3501867046 32.9508686582 9.2115626938
N 25.2839555289 20.3929315642 15.7030248675
N 26.4593022876 20.3929461316 1.5445563648
N 25.2838834335 31.3502211138 1.5447135948
N 26.4593217395 31.3502087886 15.7032853492
N 25.2837992785 32.9508953749 3.1453604114
N 26.4592427589 18.792358516 3.1452885264
N 25.2839114645 18.792137604 14.1024866287
N 26.4592219443 32.9506987097 14.1024577699
N 32.9508325691 20.3930159054 8.0360393048
N 18.7923264491 20.392948598 9.2113863912
N 18.7921828551 31.3500973684 8.0362186912
N 32.9507259852 31.3500987793 9.2115318031
N 20.3929898476 25.2838945617 15.7029678949
N 20.3929788712 26.4592972133 1.5444505984
N 31.3501803574 25.2839485608 1.5446317269
N 31.3501326331 26.4593110701 15.7032263103
N 24.3268951991 33.907620844 29.0168278708
N 27.4160635077 17.8352350804 29.0167217974
N 27.4160595787 33.907826026 22.7263451249
N 24.3268956959 17.8355023852 22.7263359147
N 29.016782599 24.3270518255 33.9077890504
N 29.0167804189 27.4161873841 17.8355432933
N 22.7263764295 27.4161280107 33.9077119463
N 22.7263335655 24.3269580843 17.835292705
N 33.9076447493 29.0168175774 24.32690423
N 17.8351738373 29.0166990546 27.4161327331
N 33.9077398945 22.7262983354 27.4159439191
N 17.8355339382 22.7263116954 24.3268115236
N 33.9076803761 24.3267804536 29.0167823472
N 17.8352167426 27.4159565478 29.0167161126
N 33.907763272 27.4161437199 22.7262628603
N 17.835589086 24.3270792252 22.7262705942
N 24.3269945873 29.0168619143 33.907808223
N 27.4161267723 29.0168439491 17.8355774507
N 27.4161745484 22.7263109572 33.9077898335
N 24.3269755286 22.7262734642 17.8353013599
N 29.0168291437 33.907791441 24.3269248272
N 29.0167632678 17.8352887483 27.4160887204
N 22.726269511 33.9076553394 27.4161135812
N 22.7262547884 17.8354023762 24.3270197379
N 32.9508962786 25.2838939201 20.3929645866
N 18.7923999691 26.4592833634 20.3929022017
N 18.7921399049 25.2837944457 31.3501666076
N 32.9506597747 26.4591121248 31.3501235125
N 20.3929379044 32.9506923315 25.2839147657
N 20.392885292 18.7921888055 26.4592021371
N 31.3501884052 18.7923122059 25.2838520047
N 31.3501867046 32.9508686582 26.4592626903
N 25.2839555289 20.3929315642 32.9507248675
N 26.4593022876 20.3929461316 18.7922563648
N 25.2838834335 31.3502211138 18.7924135914
N 26.4593217395 31.3502087886 32.9509853458
N 25.2837992785 32.9508953749 20.3930604114
N 26.4592427589 18.792358516 20.3929885264
N 25.2839114645 18.792137604 31.3501866287
N 26.4592219443 32.9506987097 31.3501577699
N 32.9508325691 20.3930159054 25.2837393048
N 18.7923264491 20.392948598 26.4590863878
N 18.7921828551 31.3500973684 25.2839186912
N 32.9507259852 31.3500987793 26.4592318031
N 20.3929898476 25.2838945617 32.9506678915
N 20.3929788712 26.4592972133 18.7921505984
N 31.3501803574 25.2839485608 18.7923317269
N 31.3501326331 26.4593110701 32.9509263103
H 6.6716332244 14.664429627 47.0658588449
H 10.5757207695 2.5831143537 47.0656727767
H 10.5757349505 14.6645807272 39.1727199978
H 6.6716827702 2.5833487983 39.1728042977
H 12.5704285441 6.6719041306 49.1599768637
H 12.5704280543 10.5759268415 37.0787747457
H 4.6773644313 10.5759445618 49.1598755059
H 4.677381065 6.6718588726 37.0785732546
H 14.6643990193 12.5703500291 41.1670451805
H 2.5830551251 12.5702684717 45.071259986
H 14.6645185562 4.6771507358 45.0710444587
H 2.5833669359 4.6772926119 41.1670109852
H 14.6644841091 6.6713988868 47.0657999371
H 2.58312572 10.5756440413 47.0656354734
H 14.6645040888 10.5757993741 39.1725836754
H 2.583445513 6.6719603374 39.1726747192
H 6.6718249464 12.5705196913 49.1600014935
H 10.5759346168 12.5704204584 37.0788231048
H 10.5760136975 4.6772850816 49.1599750458
H 6.6718499625 4.6773449069 37.0785740722
H 12.5703793399 14.6645678535 41.1671126328
H 12.5702881202 2.5831568072 45.0712204336
H 4.6771795808 14.664437078 45.0712642496
H 4.6772346631 2.5832488927 41.1673715864
H 15.2956846672 6.0406662277 38.4419490816
H 1.9521799069 11.2071410495 38.4418576619
H 1.9518668266 6.0405445004 47.7965759897
H 15.2955496867 11.2069200927 47.7964298499
H 3.9465435071 15.2954824345 40.5360962422
H 3.9464554507 1.9519559214 45.7024529207
H 13.3010771569 1.9520103689 40.5360242572
H 13.3012031617 15.2957654451 45.702526282
H 6.0407660333 3.9465934565 49.7908323886
H 11.2071994261 3.9464916019 36.4473793127
H 6.040636196 13.3011535953 36.4475291745
H 11.2071742513 13.3012177808 49.7912314693
H 6.0405525067 15.295659251 38.4420261685
H 11.2071294591 1.9520872764 38.4419632799
H 6.0406738409 1.9519044335 47.7965231738
H 11.2070393329 15.2954790022 47.7964958672
H 15.2955404971 3.9465863194 40.5359267766
H 1.9520876248 3.9465764192 45.7023213794
H 1.9518917254 13.301106133 40.5360649514
H 15.2955496936 13.3011130045 45.7024640213
H 3.9466374519 6.0407019684 49.790849481
H 3.9465518585 11.2071688839 36.4472222827
H 13.3011307455 6.0407169153 36.4474683626
H 13.3012327657 11.207173727 49.7911290042
H 6.4156690982 2.311036581 45.3277577008
H 10.4852318325 15.6193531944 43.7013314784
H 10.8322379156 2.3112091822 40.9108780903
H 6.4155201919 14.9366386271 40.9108350124
H 9.2059190083 6.7625519637 36.1235910313
H 10.83210229 10.8323501912 49.432146853
H 8.0417631231 10.4851302884 36.1236438989
H 6.4155040032 6.41545097 49.4318630455
H 1.6282175824 9.2061041003 41.2580364774
H 14.9363426738 10.832083214 45.3276439523
H 1.6280114517 8.0418534665 44.9804079125
H 14.9367233168 6.4155300542 40.9108148844
H 2.3111357829 6.4157439429 45.3277177862
H 15.6192622024 10.4851082907 43.7013591851
H 2.311144217 10.8323779255 40.9109560637
H 15.6197227505 6.7625967698 42.5370638005
H 6.4154665171 10.8321323596 36.806567191
H 10.4851448248 9.206057942 50.1150679339
H 10.8321745406 6.4155109782 36.8065935489
H 6.7626004539 8.0416937839 50.1148671707
H 9.205993715 1.6282448889 41.2580688203
H 10.8321720362 14.9364439868 45.3276250108
H 8.041824863 1.6279744726 44.9804315833
H 8.0417525675 15.6196862371 41.2579115282
H 15.0394141977 10.9350212649 36.7037957978
H 1.8612767078 6.995730764 35.0774763696
H 2.2082801036 10.934938438 49.534598836
H 15.3862347059 6.995769523 51.1611338294
H 0.5820670283 15.3863898351 44.7474325212
H 2.2085227753 2.2082178187 40.8080363368
H 15.0395464496 2.2085489746 45.4303046049
H 16.665582605 15.3862701982 41.4911140096
H 10.9350459394 2.208211137 49.5346742257
H 6.9956141213 0.5822140201 36.3568266213
H 10.2519856558 16.6657194759 36.3569127253
H 6.9957388566 16.6655675616 49.8818515233
H 10.9349734129 15.0394882111 36.7039569051
H 6.312734183 2.208537222 36.7036971858
H 10.2521152999 1.8613935782 51.16099166
H 6.3127370358 15.0392794863 49.5349343659
H 15.3865749512 0.5822614892 44.7473884189
H 1.861237114 0.5820420053 41.4910313345
H 2.2083142851 15.0392892347 45.4304316204
H 15.0392886207 15.0393451069 40.8081268355
H 0.5820423675 10.251935741 49.8817801523
H 2.2085733387 6.3127871438 36.7036899693
H 16.6656859912 10.2520596001 36.3567917741
H 15.0391353887 6.3127016332 49.5349123337
H 6.7624523479 1.6281244206 43.7014063507
H 9.2059416304 15.6193780311 44.9804007789
H 10.4852889845 1.6282651343 42.5371595425
H 6.7625908504 15.6195910333 42.5371108901
H 10.4851018676 8.0417587353 36.1236389247
H 9.2058826812 10.4851514582 50.1151475527
H 6.762567873 9.2059260074 36.1235314784
H 8.0417709121 6.7625047602 50.1148829282
H 1.628123779 10.4853193128 42.5371892775
H 15.6192907888 9.2058625704 44.9804659786
H 1.6282372585 6.7625255057 43.7013653736
H 15.6197188491 8.0417718573 41.257895443
H 15.3865310938 10.2520392237 35.0775559816
H 0.582223765 6.9956282713 36.3567891835
H 1.8613189612 10.2520262672 51.1609056527
H 16.6654324776 6.9956620975 49.881953571
H 1.8613144975 16.6655341666 44.7474387235
H 0.5821707594 1.8613258672 41.4908805723
H 16.6657690561 1.8614657495 44.7472490299
H 15.3865241706 16.6655544878 41.4911147823
H 10.2520341046 0.5820362377 49.8819805361
H 6.9957328924 1.8612504154 35.0775089126
H 10.252023618 15.386570698 35.0776989374
H 6.9958096032 15.3864841318 51.161124864
H 6.6716332244 14.664429627 64.3135588449
H 10.5757207695 2.5831143537 64.3133727767
H 10.5757349505 14.6645807272 56.4204199978
H 6.6716827702 2.5833487983 56.4205043011
H 12.5704285441 6.6719041306 66.4076768603
H 12.5704280543 10.5759268415 54.3264747457
H 4.6773644313 10.5759445618 66.4075755059
H 4.677381065 6.6718588726 54.3262732546
H 14.6643990193 12.5703500291 58.4147451771
H 2.5830551251 12.5702684717 62.318959986
H 14.6645185562 4.6771507358 62.3187444587
H 2.5833669359 4.6772926119 58.4147109818
H 14.6644841091 6.6713988868 64.3134999371
H 2.58312572 10.5756440413 64.3133354699
H 14.6645040888 10.5757993741 56.4202836754
H 2.583445513 6.6719603374 56.4203747192
H 6.6718249464 12.5705196913 66.4077014935
H 10.5759346168 12.5704204584 54.3265231048
H 10.5760136975 4.6772850816 66.4076750424
H 6.6718499625 4.6773449069 54.3262740687
H 12.5703793399 14.6645678535 58.4148126328
H 12.5702881202 2.5831568072 62.3189204336
H 4.6771795808 14.664437078 62.3189642496
H 4.6772346631 2.5832488927 58.4150715864
H 15.2956846672 6.0406662277 55.6896490816
H 1.9521799069 11.2071410495 55.6895576619
H 1.9518668266 6.0405445004 65.0442759897
H 15.2955496867 11.2069200927 65.0441298499
H 3.9465435071 15.2954824345 57.7837962456
H 3.9464554507 1.9519559214 62.9501529207
H 13.3010771569 1.9520103689 57.7837242572
H 13.3012031617 15.2957654451 62.950226282
H 6.0407660333 3.9465934565 67.0385323886
H 11.2071994261 3.9464916019 53.6950793127
H 6.040636196 13.3011535953 53.6952291745
H 11.2071742513 13.3012177808 67.0389314693
H 6.0405525067 15.295659251 55.6897261719
H 11.2071294591 1.9520872764 55.6896632764
H 6.0406738409 1.9519044335 65.0442231738
H 11.2070393329 15.2954790022 65.0441958638
H 15.2955404971 3.9465863194 57.7836267766
H 1.9520876248 3.9465764192 62.9500213828
H 1.9518917254 13.301106133 57.7837649549
H 15.2955496936 13.3011130045 62.9501640213
H 3.9466374519 6.0407019684 67.0385494776
H 3.9465518585 11.2071688839 53.6949222827
H 13.3011307455 6.0407169153 53.6951683591
H 13.3012327657 11.207173727 67.0388290042
H 6.4156690982 2.311036581 62.5754576974
H 10.4852318325 15.6193531944 60.9490314784
H 10.8322379156 2.3112091822 58.1585780903
H 6.4155201919 14.9366386271 58.1585350124
H 9.2059190083 6.7625519637 53.3712910313
H 10.83210229 10.8323501912 66.679846853
H 8.0417631231 10.4851302884 53.3713438989
H 6.4155040032 6.41545097 66.6795630455
H 1.6282175824 9.2061041003 58.5057364774
H 14.9363426738 10.832083214 62.5753439523
H 1.6280114517 8.0418534665 62.2281079091
H 14.9367233168 6.4155300542 58.1585148878
H 2.3111357829 6.4157439429 62.5754177862
H 15.6192622024 10.4851082907 60.9490591851
H 2.311144217 10.8323779255 58.1586560672
H 15.6197227505 6.7625967698 59.7847638005
H 6.4154665171 10.8321323596 54.054267191
H 10.4851448248 9.206057942 67.3627679339
H 10.8321745406 6.4155109782 54.0542935455
H 6.7626004539 8.0416937839 67.3625671707
H 9.205993715 1.6282448889 58.5057688203
H 10.8321720362 14.9364439868 62.5753250108
H 8.041824863 1.6279744726 62.2281315833
H 8.0417525675 15.6196862371 58.5056115282
H 15.0394141977 10.9350212649 53.9514957978
H 1.8612767078 6.995730764 52.3251763696
H 2.2082801036 10.934938438 66.782298836
H 15.3862347059 6.995769523 68.4088338294
H 0.5820670283 15.3863898351 61.9951325212
H 2.2085227753 2.2082178187 58.0557363368
H 15.0395464496 2.2085489746 62.6780046014
H 16.665582605 15.3862701982 58.7388140096
H 10.9350459394 2.208211137 66.7823742257
H 6.9956141213 0.5822140201 53.6045266213
H 10.2519856558 16.6657194759 53.6046127253
H 6.9957388566 16.6655675616 67.1295515233
H 10.9349734129 15.0394882111 53.9516569051
H 6.312734183 2.208537222 53.9513971858
H 10.2521152999 1.8613935782 68.40869166
H 6.3127370358 15.0392794863 66.7826343659
H 15.3865749512 0.5822614892 61.9950884189
H 1.861237114 0.5820420053 58.7387313345
H 2.2083142851 15.0392892347 62.6781316204
H 15.0392886207 15.0393451069 58.0558268355
H 0.5820423675 10.251935741 67.1294801488
H 2.2085733387 6.3127871438 53.9513899659
H 16.6656859912 10.2520596001 53.6044917741
H 15.0391353887 6.3127016332 66.7826123337
H 6.7624523479 1.6281244206 60.9491063507
H 9.2059416304 15.6193780311 62.2281007789
H 10.4852889845 1.6282651343 59.7848595425
H 6.7625908504 15.6195910333 59.7848108901
H 10.4851018676 8.0417587353 53.3713389281
H 9.2058826812 10.4851514582 67.3628475527
H 6.762567873 9.2059260074 53.3712314784
H 8.0417709121 6.7625047602 67.3625829282
H 1.628123779 10.4853193128 59.7848892775
H 15.6192907888 9.2058625704 62.2281659786
H 1.6282372585 6.7625255057 60.9490653736
H 15.6197188491 8.0417718573 58.5055954396
H 15.3865310938 10.2520392237 52.3252559816
H 0.582223765 6.9956282713 53.6044891835
H 1.8613189612 10.2520262672 68.4086056527
H 16.6654324776 6.9956620975 67.129653571
H 1.8613144975 16.6655341666 61.9951387235
H 0.5821707594 1.8613258672 58.7385805723
H 16.6657690561 1.8614657495 61.9949490299
H 15.3865241706 16.6655544878 58.7388147823
H 10.2520341046 0.5820362377 67.1296805361
H 6.9957328924 1.8612504154 52.3252089126
H 10.252023618 15.386570698 52.3253989339
H 6.9958096032 15.3864841318 68.408824864
H 6.6716332244 31.912129627 47.0658588449
H 10.5757207695 19.8308143537 47.0656727767
H 10.5757349505 31.9122807272 39.1727199978
H 6.6716827702 19.8310487983 39.1728042977
H 12.5704285441 23.9196041306 49.1599768637
H 12.5704280543 27.8236268415 37.0787747457
H 4.6773644313 27.8236445618 49.1598755059
H 4.677381065 23.9195588761 37.0785732546
H 14.6643990193 29.8180500291 41.1670451805
H 2.5830551251 29.8179684717 45.071259986
H 14.6645185562 21.9248507358 45.0710444587
H 2.5833669359 21.9249926119 41.1670109852
H 14.6644841091 23.9190988868 47.0657999371
H 2.58312572 27.8233440413 47.0656354734
H 14.6645040888 27.8234993741 39.1725836754
H 2.583445513 23.919660334 39.1726747192
H 6.6718249464 29.8182196913 49.1600014935
H 10.5759346168 29.8181204584 37.0788231048
H 10.5760136975 21.9249850816 49.1599750458
H 6.6718499625 21.9250449069 37.0785740722
H 12.5703793399 31.9122678535 41.1671126328
H 12.5702881202 19.8308568038 45.0712204336
H 4.6771795808 31.912137078 45.0712642496
H 4.6772346631 19.8309488927 41.1673715864
H 15.2956846672 23.2883662277 38.4419490816
H 1.9521799069 28.4548410495 38.4418576619
H 1.9518668266 23.2882445004 47.7965759897
H 15.2955496867 28.4546200927 47.7964298499
H 3.9465435071 32.5431824345 40.5360962422
H 3.9464554507 19.1996559214 45.7024529207
H 13.3010771569 19.1997103689 40.5360242572
H 13.3012031617 32.5434654451 45.702526282
H 6.0407660333 21.1942934565 49.7908323886
H 11.2071994261 21.1941916019 36.4473793127
H 6.040636196 30.5488535953 36.4475291745
H 11.2071742513 30.5489177808 49.7912314693
H 6.0405525067 32.543359251 38.4420261685
H 11.2071294591 19.1997872764 38.4419632799
H 6.0406738409 19.1996044301 47.7965231738
H 11.2070393329 32.5431790022 47.7964958672
H 15.2955404971 21.1942863194 40.5359267766
H 1.9520876248 21.1942764192 45.7023213794
H 1.9518917254 30.548806133 40.5360649514
H 15.2955496936 30.5488130045 45.7024640213
H 3.9466374519 23.288401965 49.790849481
H 3.9465518585 28.4548688839 36.4472222827
H 13.3011307455 23.2884169118 36.4474683626
H 13.3012327657 28.4548737236 49.7911290042
H 6.4156690982 19.558736581 45.3277577008
H 10.4852318325 32.8670531944 43.7013314784
H 10.8322379156 19.5589091822 40.9108780903
H 6.4155201919 32.1843386306 40.9108350124
H 9.2059190083 24.0102519637 36.1235910313
H 10.83210229 28.0800501877 49.432146853
H 8.0417631231 27.7328302884 36.1236438989
H 6.4155040032 23.66315097 49.4318630455
H 1.6282175824 26.4538041003 41.2580364774
H 14.9363426738 28.079783214 45.3276439523
H 1.6280114517 25.28955347 44.9804079125
H 14.9367233168 23.6632300542 40.9108148844
H 2.3111357829 23.6634439464 45.3277177862
H 15.6192622024 27.7328082907 43.7013591851
H 2.311144217 28.080077922 40.9109560637
H 15.6197227505 24.0102967698 42.5370638005
H 6.4154665171 28.0798323596 36.806567191
H 10.4851448248 26.453757942 50.1150679339
H 10.8321745406 23.6632109782 36.8065935489
H 6.7626004539 25.2893937839 50.1148671707
H 9.205993715 18.8759448924 41.2580688203
H 10.8321720362 32.1841439868 45.3276250108
H 8.041824863 18.8756744726 44.9804315833
H 8.0417525675 32.8673862371 41.2579115282
H 15.0394141977 28.1827212649 36.7037957978
H 1.8612767078 24.243430764 35.0774763696
H 2.2082801036 28.182638438 49.534598836
H 15.3862347059 24.243469523 51.1611338294
H 0.5820670283 32.6340898351 44.7474325212
H 2.2085227753 19.4559178187 40.8080363368
H 15.0395464496 19.4562489746 45.4303046049
H 16.665582605 32.6339701982 41.4911140096
H 10.9350459394 19.455911137 49.5346742257
H 6.9956141213 17.8299140201 36.3568266213
H 10.2519856558 33.9134194759 36.3569127253
H 6.9957388566 33.913267565 49.8818515233
H 10.9349734129 32.2871882111 36.7039569051
H 6.312734183 19.4562372186 36.7036971858
H 10.2521152999 19.1090935782 51.16099166
H 6.3127370358 32.2869794863 49.5349343659
H 15.3865749512 17.8299614857 44.7473884189
H 1.861237114 17.8297420019 41.4910313345
H 2.2083142851 32.2869892347 45.4304316204
H 15.0392886207 32.2870451069 40.8081268355
H 0.5820423675 27.499635741 49.8817801523
H 2.2085733387 23.5604871404 36.7036899693
H 16.6656859912 27.4997596001 36.3567917741
H 15.0391353887 23.5604016332 49.5349123337
H 6.7624523479 18.8758244206 43.7014063507
H 9.2059416304 32.8670780276 44.9804007789
H 10.4852889845 18.8759651343 42.5371595425
H 6.7625908504 32.8672910333 42.5371108901
H 10.4851018676 25.2894587353 36.1236389247
H 9.2058826812 27.7328514582 50.1151475527
H 6.762567873 26.4536260074 36.1235314784
H 8.0417709121 24.0102047602 50.1148829282
H 1.628123779 27.7330193128 42.5371892775
H 15.6192907888 26.4535625738 44.9804659786
H 1.6282372585 24.0102255057 43.7013653736
H 15.6197188491 25.2894718573 41.257895443
H 15.3865310938 27.4997392237 35.0775559816
H 0.582223765 24.2433282678 36.3567891835
H 1.8613189612 27.4997262672 51.1609056527
H 16.6654324776 24.2433620975 49.881953571
H 1.8613144975 33.9132341666 44.7474387235
H 0.5821707594 19.1090258672 41.4908805723
H 16.6657690561 19.1091657495 44.7472490299
H 15.3865241706 33.9132544878 41.4911147823
H 10.2520341046 17.8297362377 49.8819805361
H 6.9957328924 19.1089504154 35.0775089126
H 10.252023618 32.634270698 35.0776989374
H 6.9958096032 32.6341841352 51.161124864
H 6.6716332244 31.912129627 64.3135588449
H 10.5757207695 19.8308143537 64.3133727767
H 10.5757349505 31.9122807272 56.4204199978
H 6.6716827702 19.8310487983 56.4205043011
H 12.5704285441 23.9196041306 66.4076768603
H 12.5704280543 27.8236268415 54.3264747457
H 4.6773644313 27.8236445618 66.4075755059
H 4.677381065 23.9195588761 54.3262732546
H 14.6643990193 29.8180500291 58.4147451771
H 2.5830551251 29.8179684717 62.318959986
H 14.6645185562 21.9248507358 62.3187444587
H 2.5833669359 21.9249926119 58.4147109818
H 14.6644841091 23.9190988868 64.3134999371
H 2.58312572 27.8233440413 64.3133354699
H 14.6645040888 27.8234993741 56.4202836754
H 2.583445513 23.919660334 56.4203747192
H 6.6718249464 29.8182196913 66.4077014935
H 10.5759346168 29.8181204584 54.3265231048
H 10.5760136975 21.9249850816 66.4076750424
H 6.6718499625 21.9250449069 54.3262740687
H 12.5703793399 31.9122678535 58.4148126328
H 12.5702881202 19.8308568038 62.3189204336
H 4.6771795808 31.912137078 62.3189642496
H 4.6772346631 19.8309488927 58.4150715864
H 15.2956846672 23.2883662277 55.6896490816
H 1.9521799069 28.4548410495 55.6895576619
H 1.9518668266 23.2882445004 65.0442759897
H 15.2955496867 28.4546200927 65.0441298499
H 3.9465435071 32.5431824345 57.7837962456
H 3.9464554507 19.1996559214 62.9501529207
H 13.3010771569 19.1997103689 57.7837242572
H 13.3012031617 32.5434654451 62.950226282
H 6.0407660333 21.1942934565 67.0385323886
H 11.2071994261 21.1941916019 53.6950793127
H 6.040636196 30.5488535953 53.6952291745
H 11.2071742513 30.5489177808 67.0389314693
H 6.0405525067 32.543359251 55.6897261719
H 11.2071294591 19.1997872764 55.6896632764
H 6.0406738409 19.1996044301 65.0442231738
H 11.2070393329 32.5431790022 65.0441958638
H 15.2955404971 21.1942863194 57.7836267766
H 1.9520876248 21.1942764192 62.9500213828
H 1.9518917254 30.548806133 57.7837649549
H 15.2955496936 30.5488130045 62.9501640213
H 3.9466374519 23.288401965 67.0385494776
H 3.9465518585 28.4548688839 53.6949222827
H 13.3011307455 23.2884169118 53.6951683591
H 13.3012327657 28.4548737236 67.0388290042
H 6.4156690982 19.558736581 62.5754576974
H 10.4852318325 32.8670531944 60.9490314784
H 10.8322379156 19.5589091822 58.1585780903
H 6.4155201919 32.1843386306 58.1585350124
H 9.2059190083 24.0102519637 53.3712910313
H 10.83210229 28.0800501877 66.679846853
H 8.0417631231 27.7328302884 53.3713438989
H 6.4155040032 23.66315097 66.6795630455
H 1.6282175824 26.4538041003 58.5057364774
H 14.9363426738 28.079783214 62.5753439523
H 1.6280114517 25.28955347 62.2281079091
H 14.9367233168 23.6632300542 58.1585148878
H 2.3111357829 23.6634439464 62.5754177862
H 15.6192622024 27.7328082907 60.9490591851
H 2.311144217 28.080077922 58.1586560672
H 15.6197227505 24.0102967698 59.7847638005
H 6.4154665171 28.0798323596 54.054267191
H 10.4851448248 26.453757942 67.3627679339
H 10.8321745406 23.6632109782 54.0542935455
H 6.7626004539 25.2893937839 67.3625671707
H 9.205993715 18.8759448924 58.5057688203
H 10.8321720362 32.1841439868 62.5753250108
H 8.041824863 18.8756744726 62.2281315833
H 8.0417525675 32.8673862371 58.5056115282
H 15.0394141977 28.1827212649 53.9514957978
H 1.8612767078 24.243430764 52.3251763696
H 2.2082801036 28.182638438 66.782298836
H 15.3862347059 24.243469523 68.4088338294
H 0.5820670283 32.6340898351 61.9951325212
H 2.2085227753 19.4559178187 58.0557363368
H 15.0395464496 19.4562489746 62.6780046014
H 16.665582605 32.6339701982 58.7388140096
H 10.9350459394 19.455911137 66.7823742257
H 6.9956141213 17.8299140201 53.6045266213
H 10.2519856558 33.9134194759 53.6046127253
H 6.9957388566 33.913267565 67.1295515233
H 10.9349734129 32.2871882111 53.9516569051
H 6.312734183 19.4562372186 53.9513971858
H 10.2521152999 19.1090935782 68.40869166
H 6.3127370358 32.2869794863 66.7826343659
H 15.3865749512 17.8299614857 61.9950884189
H 1.861237114 17.8297420019 58.7387313345
H 2.2083142851 32.2869892347 62.6781316204
H 15.0392886207 32.2870451069 58.0558268355
H 0.5820423675 27.499635741 67.1294801488
H 2.2085733387 23.5604871404 53.9513899659
H 16.6656859912 27.4997596001 53.6044917741
H 15.0391353887 23.5604016332 66.7826123337
H 6.7624523479 18.8758244206 60.9491063507
H 9.2059416304 32.8670780276 62.2281007789
H 10.4852889845 18.8759651343 59.7848595425
H 6.7625908504 32.8672910333 59.7848108901
H 10.4851018676 25.2894587353 53.3713389281
H 9.2058826812 27.7328514582 67.3628475527
H 6.762567873 26.4536260074 53.3712314784
H 8.0417709121 24.0102047602 67.3625829282
H 1.628123779 27.7330193128 59.7848892775
H 15.6192907888 26.4535625738 62.2281659786
H 1.6282372585 24.0102255057 60.9490653736
H 15.6197188491 25.2894718573 58.5055954396
H 15.3865310938 27.4997392237 52.3252559816
H 0.582223765 24.2433282678 53.6044891835
H 1.8613189612 27.4997262672 68.4086056527
H 16.6654324776 24.2433620975 67.129653571
H 1.8613144975 33.9132341666 61.9951387235
H 0.5821707594 19.1090258672 58.7385805723
H 16.6657690561 19.1091657495 61.9949490299
H 15.3865241706 33.9132544878 58.7388147823
H 10.2520341046 17.8297362377 67.1296805361
H 6.9957328924 19.1089504154 52.3252089126
H 10.252023618 32.634270698 52.3253989339
H 6.9958096032 32.6341841352 68.408824864
H 23.9193332244 14.664429627 47.0658588449
H 27.8234207695 2.5831143537 47.0656727767
H 27.8234349505 14.6645807272 39.1727199978
H 23.9193827667 2.5833487983 39.1728042977
H 29.8181285441 6.6719041306 49.1599768637
H 29.8181280543 10.5759268415 37.0787747457
H 21.9250644313 10.5759445618 49.1598755059
H 21.925081065 6.6718588726 37.0785732546
H 31.9120990193 12.5703500291 41.1670451805
H 19.8307551286 12.5702684717 45.071259986
H 31.9122185562 4.6771507358 45.0710444587
H 19.8310669359 4.6772926119 41.1670109852
H 31.9121841091 6.6713988868 47.0657999371
H 19.8308257234 10.5756440413 47.0656354734
H 31.9122040888 10.5757993741 39.1725836754
H 19.8311455165 6.6719603374 39.1726747192
H 23.9195249464 12.5705196913 49.1600014935
H 27.8236346202 12.5704204584 37.0788231048
H 27.8237136975 4.6772850816 49.1599750458
H 23.9195499625 4.6773449069 37.0785740722
H 29.8180793433 14.6645678535 41.1671126328
H 29.8179881237 2.5831568072 45.0712204336
H 21.9248795808 14.664437078 45.0712642496
H 21.9249346631 2.5832488927 41.1673715864
H 32.5433846672 6.0406662277 38.4419490816
H 19.1998799069 11.2071410495 38.4418576619
H 19.1995668232 6.0405445004 47.7965759897
H 32.5432496867 11.2069200927 47.7964298499
H 21.1942435071 15.2954824345 40.5360962422
H 21.1941554507 1.9519559214 45.7024529207
H 30.5487771569 1.9520103689 40.5360242572
H 30.5489031617 15.2957654451 45.702526282
H 23.2884660333 3.9465934565 49.7908323886
H 28.4548994261 3.9464916019 36.4473793127
H 23.288336196 13.3011535953 36.4475291745
H 28.4548742513 13.3012177808 49.7912314693
H 23.2882525033 15.295659251 38.4420261685
H 28.4548294591 1.9520872764 38.4419632799
H 23.2883738409 1.9519044335 47.7965231738
H 28.4547393295 15.2954790022 47.7964958672
H 32.5432404971 3.9465863194 40.5359267766
H 19.1997876248 3.9465764192 45.7023213794
H 19.1995917254 13.301106133 40.5360649514
H 32.5432496936 13.3011130045 45.7024640213
H 21.1943374519 6.0407019684 49.790849481
H 21.1942518585 11.2071688839 36.4472222827
H 30.5488307455 6.0407169153 36.4474683626
H 30.5489327691 11.207173727 49.7911290042
H 23.6633690982 2.311036581 45.3277577008
H 27.7329318325 15.6193531944 43.7013314784
H 28.0799379156 2.3112091822 40.9108780903
H 23.6632201919 14.9366386271 40.9108350124
H 26.4536190083 6.7625519637 36.1235910313
H 28.07980229 10.8323501912 49.432146853
H 25.2894631231 10.4851302884 36.1236438989
H 23.6632040032 6.41545097 49.4318630455
H 18.8759175824 9.2061041003 41.2580364774
H 32.1840426738 10.832083214 45.3276439523
H 18.8757114517 8.0418534665 44.9804079125
H 32.1844233168 6.4155300542 40.9108148844
H 19.5588357795 6.4157439429 45.3277177862
H 32.8669622024 10.4851082907 43.7013591851
H 19.558844217 10.8323779255 40.9109560637
H 32.8674227505 6.7625967698 42.5370638005
H 23.6631665171 10.8321323596 36.806567191
H 27.7328448213 9.206057942 50.1150679339
H 28.0798745406 6.4155109782 36.8065935489
H 24.0103004573 8.0416937839 50.1148671707
H 26.453693715 1.6282448889 41.2580688203
H 28.0798720397 14.9364439868 45.3276250108
H 25.2895248664 1.6279744726 44.9804315833
H 25.2894525675 15.6196862371 41.2579115282
H 32.2871141977 10.9350212649 36.7037957978
H 19.1089767078 6.995730764 35.0774763696
H 19.4559801002 10.934938438 49.534598836
H 32.6339347059 6.995769523 51.1611338294
H 17.8297670283 15.3863898351 44.7474325212
H 19.4562227753 2.2082178187 40.8080363368
H 32.2872464496 2.2085489746 45.4303046049
H 33.913282605 15.3862701982 41.4911140096
H 28.182745936 2.208211137 49.5346742257
H 24.2433141213 0.5822140201 36.3568266213
H 27.4996856558 16.6657194759 36.3569127253
H 24.2434388566 16.6655675616 49.8818515233
H 28.1826734129 15.0394882111 36.7039569051
H 23.560434183 2.208537222 36.7036971858
H 27.4998152999 1.8613935782 51.16099166
H 23.5604370392 15.0392794863 49.5349343659
H 32.6342749512 0.5822614892 44.7473884189
H 19.108937114 0.5820420053 41.4910313345
H 19.4560142886 15.0392892347 45.4304316204
H 32.2869886241 15.0393451069 40.8081268355
H 17.8297423641 10.251935741 49.8817801523
H 19.4562733387 6.3127871438 36.7036899693
H 33.9133859946 10.2520596001 36.3567917741
H 32.2868353887 6.3127016332 49.5349123337
H 24.0101523479 1.6281244206 43.7014063507
H 26.4536416269 15.6193780311 44.9804007789
H 27.7329889879 1.6282651343 42.5371595425
H 24.0102908504 15.6195910333 42.5371108901
H 27.7328018676 8.0417587353 36.1236389247
H 26.4535826812 10.4851514582 50.1151475527
H 24.010267873 9.2059260074 36.1235314784
H 25.2894709121 6.7625047602 50.1148829282
H 18.875823779 10.4853193128 42.5371892775
H 32.8669907888 9.2058625704 44.9804659786
H 18.8759372585 6.7625255057 43.7013653736
H 32.8674188456 8.0417718573 41.257895443
H 32.6342310938 10.2520392237 35.0775559816
H 17.829923765 6.9956282713 36.3567891835
H 19.1090189612 10.2520262672 51.1609056527
H 33.9131324776 6.9956620975 49.881953571
H 19.1090144975 16.6655341666 44.7474387235
H 17.8298707594 1.8613258672 41.4908805723
H 33.9134690561 1.8614657495 44.7472490299
H 32.6342241706 16.6655544878 41.4911147823
H 27.4997341046 0.5820362377 49.8819805361
H 24.2434328924 1.8612504154 35.0775089126
H 27.499723618 15.386570698 35.0776989374
H 24.2435096032 15.3864841318 51.161124864
H 23.9193332244 14.664429627 64.3135588449
H 27.8234207695 2.5831143537 64.3133727767
H 27.8234349505 14.6645807272 56.4204199978
H 23.9193827667 2.5833487983 56.4205043011
H 29.8181285441 6.6719041306 66.4076768603
H 29.8181280543 10.5759268415 54.3264747457
H 21.9250644313 10.5759445618 66.4075755059
H 21.925081065 6.6718588726 54.3262732546
H 31.9120990193 12.5703500291 58.4147451771
H 19.8307551286 12.5702684717 62.318959986
H 31.9122185562 4.6771507358 62.3187444587
H 19.8310669359 4.6772926119 58.4147109818
H 31.9121841091 6.6713988868 64.3134999371
H 19.8308257234 10.5756440413 64.3133354699
H 31.9122040888 10.5757993741 56.4202836754
H 19.8311455165 6.6719603374 56.4203747192
H 23.9195249464 12.5705196913 66.4077014935
H 27.8236346202 12.5704204584 54.3265231048
H 27.8237136975 4.6772850816 66.4076750424
H 23.9195499625 4.6773449069 54.3262740687
H 29.8180793433 14.6645678535 58.4148126328
H 29.8179881237 2.5831568072 62.3189204336
H 21.9248795808 14.664437078 62.3189642496
H 21.9249346631 2.5832488927 58.4150715864
H 32.5433846672 6.0406662277 55.6896490816
H 19.1998799069 11.2071410495 55.6895576619
H 19.1995668232 6.0405445004 65.0442759897
H 32.5432496867 11.2069200927 65.0441298499
H 21.1942435071 15.2954824345 57.7837962456
H 21.1941554507 1.9519559214 62.9501529207
H 30.5487771569 1.9520103689 57.7837242572
H 30.5489031617 15.2957654451 62.950226282
H 23.2884660333 3.9465934565 67.0385323886
H 28.4548994261 3.9464916019 53.6950793127
H 23.288336196 13.3011535953 53.6952291745
H 28.4548742513 13.3012177808 67.0389314693
H 23.2882525033 15.295659251 55.6897261719
H 28.4548294591 1.9520872764 55.6896632764
H 23.2883738409 1.9519044335 65.0442231738
H 28.4547393295 15.2954790022 65.0441958638
H 32.5432404971 3.9465863194 57.7836267766
H 19.1997876248 3.9465764192 62.9500213828
H 19.1995917254 13.301106133 57.7837649549
H 32.5432496936 13.3011130045 62.9501640213
H 21.1943374519 6.0407019684 67.0385494776
H 21.1942518585 11.2071688839 53.6949222827
H 30.5488307455 6.0407169153 53.6951683591
H 30.5489327691 11.207173727 67.0388290042
H 23.6633690982 2.311036581 62.5754576974
H 27.7329318325 15.6193531944 60.9490314784
H 28.0799379156 2.3112091822 58.1585780903
H 23.6632201919 14.9366386271 58.1585350124
H 26.4536190083 6.7625519637 53.3712910313
H 28.07980229 10.8323501912 66.679846853
H 25.2894631231 10.4851302884 53.3713438989
H 23.6632040032 6.41545097 66.6795630455
H 18.8759175824 9.2061041003 58.5057364774
H 32.1840426738 10.832083214 62.5753439523
H 18.8757114517 8.0418534665 62.2281079091
H 32.1844233168 6.4155300542 58.1585148878
H 19.5588357795 6.4157439429 62.5754177862
H 32.8669622024 10.4851082907 60.9490591851
H 19.558844217 10.8323779255 58.1586560672
H 32.8674227505 6.7625967698 59.7847638005
H 23.6631665171 10.8321323596 54.054267191
H 27.7328448213 9.206057942 67.3627679339
H 28.0798745406 6.4155109782 54.0542935455
H 24.0103004573 8.0416937839 67.3625671707
H 26.453693715 1.6282448889 58.5057688203
H 28.0798720397 14.9364439868 62.5753250108
H 25.2895248664 1.6279744726 62.2281315833
H 25.2894525675 15.6196862371 58.5056115282
H 32.2871141977 10.9350212649 53.9514957978
H 19.1089767078 6.995730764 52.3251763696
H 19.4559801002 10.934938438 66.782298836
H 32.6339347059 6.995769523 68.4088338294
H 17.8297670283 15.3863898351 61.9951325212
H 19.4562227753 2.2082178187 58.0557363368
H 32.2872464496 2.2085489746 62.6780046014
H 33.913282605 15.3862701982 58.7388140096
H 28.182745936 2.208211137 66.7823742257
H 24.2433141213 0.5822140201 53.6045266213
H 27.4996856558 16.6657194759 53.6046127253
H 24.2434388566 16.6655675616 67.1295515233
H 28.1826734129 15.0394882111 53.9516569051
H 23.560434183 2.208537222 53.9513971858
H 27.4998152999 1.8613935782 68.40869166
H 23.5604370392 15.0392794863 66.7826343659
H 32.6342749512 0.5822614892 61.9950884189
H 19.108937114 0.5820420053 58.7387313345
H 19.4560142886 15.0392892347 62.6781316204
H 32.2869886241 15.0393451069 58.0558268355
H 17.8297423641 10.251935741 67.1294801488
H 19.4562733387 6.3127871438 53.9513899659
H 33.9133859946 10.2520596001 53.6044917741
H 32.2868353887 6.3127016332 66.7826123337
H 24.0101523479 1.6281244206 60.9491063507
H 26.4536416269 15.6193780311 62.2281007789
H 27.7329889879 1.6282651343 59.7848595425
H 24.0102908504 15.6195910333 59.7848108901
H 27.7328018676 8.0417587353 53.3713389281
H 26.4535826812 10.4851514582 67.3628475527
H 24.010267873 9.2059260074 53.3712314784
H 25.2894709121 6.7625047602 67.3625829282
H 18.875823779 10.4853193128 59.7848892775
H 32.8669907888 9.2058625704 62.2281659786
H 18.8759372585 6.7625255057 60.9490653736
H 32.8674188456 8.0417718573 58.5055954396
H 32.6342310938 10.2520392237 52.3252559816
H 17.829923765 6.9956282713 53.6044891835
H 19.1090189612 10.2520262672 68.4086056527
H 33.9131324776 6.9956620975 67.129653571
H 19.1090144975 16.6655341666 61.9951387235
H 17.8298707594 1.8613258672 58.7385805723
H 33.9134690561 1.8614657495 61.9949490299
H 32.6342241706 16.6655544878 58.7388147823
H 27.4997341046 0.5820362377 67.1296805361
H 24.2434328924 1.8612504154 52.3252089126
H 27.499723618 15.386570698 52.3253989339
H 24.2435096032 15.3864841318 68.408824864
H 23.9193332244 31.912129627 47.0658588449
H 27.8234207695 19.8308143537 47.0656727767
H 27.8234349505 31.9122807272 39.1727199978
H 23.9193827667 19.8310487983 39.1728042977
H 29.8181285441 23.9196041306 49.1599768637
H 29.8181280543 27.8236268415 37.0787747457
H 21.9250644313 27.8236445618 49.1598755059
H 21.925081065 23.9195588761 37.0785732546
H 31.9120990193 29.8180500291 41.1670451805
H 19.8307551286 29.8179684717 45.071259986
H 31.9122185562 21.9248507358 45.0710444587
H 19.8310669359 21.9249926119 41.1670109852
H 31.9121841091 23.9190988868 47.0657999371
H 19.8308257234 27.8233440413 47.0656354734
H 31.9122040888 27.8234993741 39.1725836754
H 19.8311455165 23.919660334 39.1726747192
H 23.9195249464 29.8182196913 49.1600014935
H 27.8236346202 29.8181204584 37.0788231048
H 27.8237136975 21.9249850816 49.1599750458
H 23.9195499625 21.9250449069 37.0785740722
H 29.8180793433 31.9122678535 41.1671126328
H 29.8179881237 19.8308568038 45.0712204336
H 21.9248795808 31.912137078 45.0712642496
H 21.9249346631 19.8309488927 41.1673715864
H 32.5433846672 23.2883662277 38.4419490816
H 19.1998799069 28.4548410495 38.4418576619
H 19.1995668232 23.2882445004 47.7965759897
H 32.5432496867 28.4546200927 47.7964298499
H 21.1942435071 32.5431824345 40.5360962422
H 21.1941554507 19.1996559214 45.7024529207
H 30.5487771569 19.1997103689 40.5360242572
H 30.5489031617 32.5434654451 45.702526282
H 23.2884660333 21.1942934565 49.7908323886
H 28.4548994261 21.1941916019 36.4473793127
H 23.288336196 30.5488535953 36.4475291745
H 28.4548742513 30.5489177808 49.7912314693
H 23.2882525033 32.543359251 38.4420261685
H 28.4548294591 19.1997872764 38.4419632799
H 23.2883738409 19.1996044301 47.7965231738
H 28.4547393295 32.5431790022 47.7964958672
H 32.5432404971 21.1942863194 40.5359267766
H 19.1997876248 21.1942764192 45.7023213794
H 19.1995917254 30.548806133 40.5360649514
H 32.5432496936 30.5488130045 45.7024640213
H 21.1943374519 23.288401965 49.790849481
H 21.1942518585 28.4548688839 36.4472222827
H 30.5488307455 23.2884169118 36.4474683626
H 30.5489327691 28.4548737236 49.7911290042
H 23.6633690982 19.558736581 45.3277577008
H 27.7329318325 32.8670531944 43.7013314784
H 28.0799379156 19.5589091822 40.9108780903
H 23.6632201919 32.1843386306 40.9108350124
H 26.4536190083 24.0102519637 36.1235910313
H 28.07980229 28.0800501877 49.432146853
H 25.2894631231 27.7328302884 36.1236438989
H 23.6632040032 23.66315097 49.4318630455
H 18.8759175824 26.4538041003 41.2580364774
H 32.1840426738 28.079783214 45.3276439523
H 18.8757114517 25.28955347 44.9804079125
H 32.1844233168 23.6632300542 40.9108148844
H 19.5588357795 23.6634439464 45.3277177862
H 32.8669622024 27.7328082907 43.7013591851
H 19.558844217 28.080077922 40.9109560637
H 32.8674227505 24.0102967698 42.5370638005
H 23.6631665171 28.0798323596 36.806567191
H 27.7328448213 26.453757942 50.1150679339
H 28.0798745406 23.6632109782 36.8065935489
H 24.0103004573 25.2893937839 50.1148671707
H 26.453693715 18.8759448924 41.2580688203
H 28.0798720397 32.1841439868 45.3276250108
H 25.2895248664 18.8756744726 44.9804315833
H 25.2894525675 32.8673862371 41.2579115282
H 32.2871141977 28.1827212649 36.7037957978
H 19.1089767078 24.243430764 35.0774763696
H 19.4559801002 28.182638438 49.534598836
H 32.6339347059 24.243469523 51.1611338294
H 17.8297670283 32.6340898351 44.7474325212
H 19.4562227753 19.4559178187 40.8080363368
H 32.2872464496 19.4562489746 45.4303046049
H 33.913282605 32.6339701982 41.4911140096
H 28.182745936 19.455911137 49.5346742257
H 24.2433141213 17.8299140201 36.3568266213
H 27.4996856558 33.9134194759 36.3569127253
H 24.2434388566 33.913267565 49.8818515233
H 28.1826734129 32.2871882111 36.7039569051
H 23.560434183 19.4562372186 36.7036971858
H 27.4998152999 19.1090935782 51.16099166
H 23.5604370392 32.2869794863 49.5349343659
H 32.6342749512 17.8299614857 44.7473884189
H 19.108937114 17.8297420019 41.4910313345
H 19.4560142886 32.2869892347 45.4304316204
H 32.2869886241 32.2870451069 40.8081268355
H 17.8297423641 27.499635741 49.8817801523
H 19.4562733387 23.5604871404 36.7036899693
H 33.9133859946 27.4997596001 36.3567917741
H 32.2868353887 23.5604016332 49.5349123337
H 24.0101523479 18.8758244206 43.7014063507
H 26.4536416269 32.8670780276 44.9804007789
H 27.7329889879 18.8759651343 42.5371595425
H 24.0102908504 32.8672910333 42.5371108901
H 27.7328018676 25.2894587353 36.1236389247
H 26.4535826812 27.7328514582 50.1151475527
H 24.010267873 26.4536260074 36.1235314784
H 25.2894709121 24.0102047602 50.1148829282
H 18.875823779 27.7330193128 42.5371892775
H 32.8669907888 26.4535625738 44.9804659786
H 18.8759372585 24.0102255057 43.7013653736
H 32.8674188456 25.2894718573 41.257895443
H 32.6342310938 27.4997392237 35.0775559816
H 17.829923765 24.2433282678 36.3567891835
H 19.1090189612 27.4997262672 51.1609056527
H 33.9131324776 24.2433620975 49.881953571
H 19.1090144975 33.9132341666 44.7474387235
H 17.8298707594 19.1090258672 41.4908805723
H 33.9134690561 19.1091657495 44.7472490299
H 32.6342241706 33.9132544878 41.4911147823
H 27.4997341046 17.8297362377 49.8819805361
H 24.2434328924 19.1089504154 35.0775089126
H 27.499723618 32.634270698 35.0776989374
H 24.2435096032 32.6341841352 51.161124864
H 23.9193332244 31.912129627 64.3135588449
H 27.8234207695 19.8308143537 64.3133727767
H 27.8234349505 31.9122807272 56.4204199978
H 23.9193827667 19.8310487983 56.4205043011
H 29.8181285441 23.9196041306 66.4076768603
H 29.8181280543 27.8236268415 54.3264747457
H 21.9250644313 27.8236445618 66.4075755059
H 21.925081065 23.9195588761 54.3262732546
H 31.9120990193 29.8180500291 58.4147451771
H 19.8307551286 29.8179684717 62.318959986
H 31.9122185562 21.9248507358 62.3187444587
H 19.8310669359 21.9249926119 58.4147109818
H 31.9121841091 23.9190988868 64.3134999371
H 19.8308257234 27.8233440413 64.3133354699
H 31.9122040888 27.8234993741 56.4202836754
H 19.8311455165 23.919660334 56.4203747192
H 23.9195249464 29.8182196913 66.4077014935
H 27.8236346202 29.8181204584 54.3265231048
H 27.8237136975 21.9249850816 66.4076750424
H 23.9195499625 21.9250449069 54.3262740687
H 29.8180793433 31.9122678535 58.4148126328
H 29.8179881237 19.8308568038 62.3189204336
H 21.9248795808 31.912137078 62.3189642496
H 21.9249346631 19.8309488927 58.4150715864
H 32.5433846672 23.2883662277 55.6896490816
H 19.1998799069 28.4548410495 55.6895576619
H 19.1995668232 23.2882445004 65.0442759897
H 32.5432496867 28.4546200927 65.0441298499
H 21.1942435071 32.5431824345 57.7837962456
H 21.1941554507 19.1996559214 62.9501529207
H 30.5487771569 19.1997103689 57.7837242572
H 30.5489031617 32.5434654451 62.950226282
H 23.2884660333 21.1942934565 67.0385323886
H 28.4548994261 21.1941916019 53.6950793127
H 23.288336196 30.5488535953 53.6952291745
H 28.4548742513 30.5489177808 67.0389314693
H 23.2882525033 32.543359251 55.6897261719
H 28.4548294591 19.1997872764 55.6896632764
H 23.2883738409 19.1996044301 65.0442231738
H 28.4547393295 32.5431790022 65.0441958638
H 32.5432404971 21.1942863194 57.7836267766
H 19.1997876248 21.1942764192 62.9500213828
H 19.1995917254 30.548806133 57.7837649549
H 32.5432496936 30.5488130045 62.9501640213
H 21.1943374519 23.288401965 67.0385494776
H 21.1942518585 28.4548688839 53.6949222827
H 30.5488307455 23.2884169118 53.6951683591
H 30.5489327691 28.4548737236 67.0388290042
H 23.6633690982 19.558736581 62.5754576974
H 27.7329318325 32.8670531944 60.9490314784
H 28.0799379156 19.5589091822 58.1585780903
H 23.6632201919 32.1843386306 58.1585350124
H 26.4536190083 24.0102519637 53.3712910313
H 28.07980229 28.0800501877 66.679846853
H 25.2894631231 27.7328302884 53.3713438989
H 23.6632040032 23.66315097 66.6795630455
H 18.8759175824 26.4538041003 58.5057364774
H 32.1840426738 28.079783214 62.5753439523
H 18.8757114517 25.28955347 62.2281079091
H 32.1844233168 23.6632300542 58.1585148878
H 19.5588357795 23.6634439464 62.5754177862
H 32.8669622024 27.7328082907 60.9490591851
H 19.558844217 28.080077922 58.1586560672
H 32.8674227505 24.0102967698 59.7847638005
H 23.6631665171 28.0798323596 54.054267191
H 27.7328448213 26.453757942 67.3627679339
H 28.0798745406 23.6632109782 54.0542935455
H 24.0103004573 25.2893937839 67.3625671707
H 26.453693715 18.8759448924 58.5057688203
H 28.0798720397 32.1841439868 62.5753250108
H 25.2895248664 18.8756744726 62.2281315833
H 25.2894525675 32.8673862371 58.5056115282
H 32.2871141977 28.1827212649 53.9514957978
H 19.1089767078 24.243430764 52.3251763696
H 19.4559801002 28.182638438 66.782298836
H 32.6339347059 24.243469523 68.4088338294
H 17.8297670283 32.6340898351 61.9951325212
H 19.4562227753 19.4559178187 58.0557363368
H 32.2872464496 19.4562489746 62.6780046014
H 33.913282605 32.6339701982 58.7388140096
H 28.182745936 19.455911137 66.7823742257
H 24.2433141213 17.8299140201 53.6045266213
H 27.4996856558 33.9134194759 53.6046127253
H 24.2434388566 33.913267565 67.1295515233
H 28.1826734129 32.2871882111 53.9516569051
H 23.560434183 19.4562372186 53.9513971858
H 27.4998152999 19.1090935782 68.40869166
H 23.5604370392 32.2869794863 66.7826343659
H 32.6342749512 17.8299614857 61.9950884189
H 19.108937114 17.8297420019 58.7387313345
H 19.4560142886 32.2869892347 62.6781316204
H 32.2869886241 32.2870451069 58.0558268355
H 17.8297423641 27.499635741 67.1294801488
H 19.4562733387 23.5604871404 53.9513899659
H 33.9133859946 27.4997596001 53.6044917741
H 32.2868353887 23.5604016332 66.7826123337
H 24.0101523479 18.8758244206 60.9491063507
H 26.4536416269 32.8670780276 62.2281007789
H 27.7329889879 18.8759651343 59.7848595425
H 24.0102908504 32.8672910333 59.7848108901
H 27.7328018676 25.2894587353 53.3713389281
H 26.4535826812 27.7328514582 67.3628475527
H 24.010267873 26.4536260074 53.3712314784
H 25.2894709121 24.0102047602 67.3625829282
H 18.875823779 27.7330193128 59.7848892775
H 32.8669907888 26.4535625738 62.2281659786
H 18.8759372585 24.0102255057 60.9490653736
H 32.8674188456 25.2894718573 58.5055954396
H 32.6342310938 27.4997392237 52.3252559816
H 17.829923765 24.2433282678 53.6044891835
H 19.1090189612 27.4997262672 68.4086056527
H 33.9131324776 24.2433620975 67.129653571
H 19.1090144975 33.9132341666 61.9951387235
H 17.8298707594 19.1090258672 58.7385805723
H 33.9134690561 19.1091657495 61.9949490299
H 32.6342241706 33.9132544878 58.7388147823
H 27.4997341046 17.8297362377 67.1296805361
H 24.2434328924 19.1089504154 52.3252089126
H 27.499723618 32.634270698 52.3253989339
H 24.2435096032 32.6341841352 68.408824864
C 6.5036575671 0.120408667 45.2394318807
C 10.7439990929 17.1270738705 45.2393677986
C 10.744038804 0.1205870669 40.9990837008
C 6.5036289463 17.1272719466 40.9990861397
C 10.74402424 6.5037147122 34.6159611436
C 10.7439972439 10.7440828615 51.6227806381
C 6.5037191035 10.7440424536 34.6159345476
C 6.5036800133 6.5036293982 51.6225080244
C 0.1204916595 10.744084024 40.9990494193
C 17.1270004781 10.7439046479 45.2393990204
C 0.1204797896 6.5036418027 45.2393429068
C 17.1273768333 6.5037243157 40.9989795592
C 15.1275890349 8.7443962347 36.6156198705
C 2.1202474358 8.5034051508 36.6155122552
C 2.1201254083 8.7443171747 49.622861909
C 15.1274042051 8.5033333865 49.622987148
C 2.120141121 15.1274365445 43.2397966452
C 2.1201785657 2.1201266605 42.9986633057
C 15.1275932537 2.1202508508 43.2396691122
C 15.1274957628 15.1275013062 42.9987629732
C 8.7444019368 2.1200940658 49.622922138
C 8.5033814214 2.1202272042 36.6155932332
C 8.7443223421 15.1276196875 36.6157183894
C 8.5033962544 15.1275011199 49.623019177
C 6.3922740834 15.439271166 46.3368446655
C 10.8551832622 1.808238102 46.3367395787
C 10.8551965877 15.4394464096 39.9016710437
C 6.3923053638 1.8084588208 39.9017592933
C 11.8414538758 6.3924696999 49.9348297621
C 11.841441523 10.8553389917 36.3039202295
C 5.4063302481 10.8553369806 49.9347682361
C 5.4063159636 6.392424028 36.3036826493
C 15.4392810145 11.8413819598 40.887688637
C 1.8081881664 11.8412816127 45.3506516045
C 15.4393750903 5.4061136308 45.350527421
C 1.808525973 5.4063049665 40.8876555456
C 15.4393321505 6.3921385648 46.3367510691
C 1.8082092224 10.8551171241 46.3367360361
C 15.4393548208 10.8552530153 39.9015663846
C 1.8085546973 6.3925003387 39.9016009973
C 6.3924245351 11.8415068193 49.9348310591
C 10.8553206815 11.841462917 36.3039418857
C 10.8553638007 5.4062893193 49.9348308694
C 6.3924287021 5.4062870047 36.3036874408
C 11.8413873963 15.4394276475 40.887746848
C 11.8413311722 1.8082698516 45.3506333564
C 5.406168413 15.4392922565 45.3506859032
C 5.4061965233 1.8084000303 40.887907224
C 15.0162935834 6.815534311 37.7129792392
C 2.2315447259 10.4322797136 37.7128732935
C 2.2313507065 6.8154520808 48.5254811118
C 15.0161642291 10.4321178888 48.5254759444
C 3.2175306766 15.0161270465 41.3109437213
C 3.2175211248 2.2313836531 44.9275527533
C 14.0300768275 2.2314484113 41.3108641646
C 14.0301248382 15.0163071574 44.9276334759
C 6.8155915837 3.2175430811 49.5115212617
C 10.4322905244 3.2175712397 36.7268247164
C 6.8154869695 14.0301515066 36.726944957
C 10.4322703619 14.0301271494 49.5117659686
C 6.8154381861 15.0162780915 37.713066209
C 10.4322561498 2.2314840002 37.7129901535
C 6.8155662985 2.2313534282 48.5254709322
C 10.4322049448 15.0161483405 48.5255345452
C 15.0161900903 3.217604683 41.3108021108
C 2.2314608779 3.2175694528 44.9274822136
C 2.2313505133 14.0300365886 41.3109478194
C 15.0161764371 14.0301096878 44.9276134376
C 3.2175830302 6.815513631 49.5115165116
C 3.2176312755 10.4322801551 36.7266946308
C 14.0301254177 6.8155718868 36.7268791777
C 14.0301186394 10.4322413375 49.5116919725
C 6.9535851363 1.4936083907 44.7895685385
C 10.294158352 15.753851173 44.7895015553
C 10.2942094121 1.4937931411 41.4489832287
C 6.9535491266 15.7540722091 41.4489166733
C 10.2941215247 6.9535679576 35.9891631888
C 10.2940989613 10.2942296506 50.2495689377
C 6.9535665019 10.2941249432 35.9891394525
C 6.9535661363 6.9534976387 50.2493018605
C 1.4937162647 10.2942927461 41.4489949606
C 15.7537604052 10.2940625755 44.7895377169
C 1.4936826351 6.9536278037 44.7895237842
C 15.7541635874 6.9535833771 41.4488696043
C 15.5774896736 10.1176002944 36.1657597122
C 1.6703957979 7.1301701935 36.16569048
C 1.6702599688 10.117527823 50.072726669
C 15.5772292643 7.1301371159 50.0729307852
C 1.6702779754 15.5773483321 44.6129926433
C 1.6703427681 1.6702510517 41.625441843
C 15.5775565463 1.6704497521 44.6128766732
C 15.577398892 15.5773469454 41.6255586376
C 10.117614503 1.6702515277 50.0728314557
C 7.1301471333 1.6703751455 36.165727497
C 10.1175436564 15.5775345176 36.1658922849
C 7.1301936987 15.5773913065 50.0729098016
C 6.5036575671 0.120408667 62.4871318773
C 10.7439990929 17.1270738705 62.4870677986
C 10.744038804 0.1205870669 58.2467837008
C 6.5036289463 17.1272719466 58.2467861397
C 10.74402424 6.5037147122 51.863661147
C 10.7439972439 10.7440828615 68.8704806416
C 6.5037191035 10.7440424536 51.8636345476
C 6.5036800133 6.5036293982 68.8702080244
C 0.1204916595 10.744084024 58.2467494193
C 17.1270004781 10.7439046479 62.4870990204
C 0.1204797896 6.5036418027 62.4870429068
C 17.1273768333 6.5037243157 58.2466795558
C 15.1275890349 8.7443962347 53.8633198705
C 2.1202474358 8.5034051508 53.8632122552
C 2.1201254083 8.7443171747 66.870561909
C 15.1274042051 8.5033333865 66.870687148
C 2.120141121 15.1274365445 60.4874966452
C 2.1201785657 2.1201266605 60.2463633057
C 15.1275932537 2.1202508508 60.4873691122
C 15.1274957628 15.1275013062 60.2464629732
C 8.7444019368 2.1200940658 66.8706221414
C 8.5033814214 2.1202272042 53.8632932366
C 8.7443223421 15.1276196875 53.8634183894
C 8.5033962544 15.1275011199 66.870719177
C 6.3922740834 15.439271166 63.5845446655
C 10.8551832622 1.808238102 63.5844395753
C 10.8551965877 15.4394464096 57.1493710437
C 6.3923053638 1.8084588208 57.1494592933
C 11.8414538758 6.3924696999 67.1825297621
C 11.841441523 10.8553389917 53.5516202295
C 5.4063302481 10.8553369806 67.1824682361
C 5.4063159636 6.392424028 53.5513826493
C 15.4392810145 11.8413819598 58.135388637
C 1.8081881664 11.8412816127 62.598351601
C 15.4393750903 5.4061136308 62.598227421
C 1.808525973 5.4063049665 58.1353555456
C 15.4393321505 6.3921385648 63.5844510657
C 1.8082092224 10.8551171241 63.5844360361
C 15.4393548208 10.8552530153 57.1492663812
C 1.8085546973 6.3925003387 57.1493009939
C 6.3924245351 11.8415068193 67.1825310591
C 10.8553206815 11.841462917 53.5516418857
C 10.8553638007 5.4062893193 67.1825308694
C 6.3924287021 5.4062870047 53.5513874408
C 11.8413873963 15.4394276475 58.135446848
C 11.8413311722 1.8082698516 62.5983333564
C 5.406168413 15.4392922565 62.5983859032
C 5.4061965233 1.8084000303 58.135607224
C 15.0162935834 6.815534311 54.9606792357
C 2.2315447259 10.4322797136 54.9605732935
C 2.2313507065 6.8154520808 65.7731811118
C 15.0161642291 10.4321178888 65.7731759444
C 3.2175306766 15.0161270465 58.5586437213
C 3.2175211248 2.2313836531 62.1752527533
C 14.0300768275 2.2314484113 58.5585641646
C 14.0301248382 15.0163071574 62.1753334759
C 6.8155915837 3.2175430811 66.7592212617
C 10.4322905244 3.2175712397 53.9745247164
C 6.8154869695 14.0301515066 53.974644957
C 10.4322703619 14.0301271494 66.7594659686
C 6.8154381861 15.0162780915 54.9607662124
C 10.4322561498 2.2314840002 54.9606901535
C 6.8155662985 2.2313534282 65.7731709288
C 10.4322049448 15.0161483405 65.7732345452
C 15.0161900903 3.217604683 58.5585021108
C 2.2314608779 3.2175694528 62.1751822136
C 2.2313505133 14.0300365886 58.5586478194
C 15.0161764371 14.0301096878 62.1753134341
C 3.2175830302 6.815513631 66.7592165116
C 3.2176312755 10.4322801551 53.9743946308
C 14.0301254177 6.8155718868 53.9745791777
C 14.0301186394 10.4322413375 66.7593919725
C 6.9535851363 1.4936083907 62.037268542
C 10.294158352 15.753851173 62.0372015553
C 10.2942094121 1.4937931411 58.6966832253
C 6.9535491266 15.7540722091 58.6966166733
C 10.2941215247 6.9535679576 53.2368631888
C 10.2940989613 10.2942296506 67.4972689377
C 6.9535665019 10.2941249432 53.2368394525
C 6.9535661363 6.9534976387 67.4970018605
C 1.4937162647 10.2942927461 58.6966949606
C 15.7537604052 10.2940625755 62.0372377169
C 1.4936826351 6.9536278037 62.0372237842
C 15.7541635874 6.9535833771 58.6965696043
C 15.5774896736 10.1176002944 53.4134597088
C 1.6703957979 7.1301701935 53.41339048
C 1.6702599688 10.117527823 67.320426669
C 15.5772292643 7.1301371159 67.3206307886
C 1.6702779754 15.5773483321 61.8606926433
C 1.6703427681 1.6702510517 58.873141843
C 15.5775565463 1.6704497521 61.8605766732
C 15.577398892 15.5773469454 58.8732586376
C 10.117614503 1.6702515277 67.3205314591
C 7.1301471333 1.6703751455 53.4134274935
C 10.1175436564 15.5775345176 53.4135922884
C 7.1301936987 15.5773913065 67.3206098016
C 6.5036575671 17.368108667 45.2394318807
C 10.7439990929 34.3747738705 45.2393677986
C 10.744038804 17.3682870669 40.9990837008
C 6.5036289463 34.3749719466 40.9990861397
C 10.74402424 23.7514147122 34.6159611436
C 10.7439972439 27.9917828615 51.6227806381
C 6.5037191035 27.9917424536 34.6159345476
C 6.5036800133 23.7513293982 51.6225080244
C 0.1204916595 27.991784024 40.9990494193
C 17.1270004781 27.9916046479 45.2393990204
C 0.1204797896 23.7513418027 45.2393429068
C 17.1273768333 23.7514243157 40.9989795592
C 15.1275890349 25.9920962347 36.6156198705
C 2.1202474358 25.7511051508 36.6155122552
C 2.1201254083 25.9920171747 49.622861909
C 15.1274042051 25.75103339 49.622987148
C 2.120141121 32.3751365445 43.2397966452
C 2.1201785657 19.3678266605 42.9986633057
C 15.1275932537 19.3679508508 43.2396691122
C 15.1274957628 32.3752013097 42.9987629732
C 8.7444019368 19.3677940658 49.622922138
C 8.5033814214 19.3679272042 36.6155932332
C 8.7443223421 32.3753196875 36.6157183894
C 8.5033962544 32.3752011199 49.623019177
C 6.3922740834 32.686971166 46.3368446655
C 10.8551832622 19.0559381054 46.3367395787
C 10.8551965877 32.6871464096 39.9016710437
C 6.3923053638 19.0561588243 39.9017592933
C 11.8414538758 23.6401696999 49.9348297621
C 11.841441523 28.1030389917 36.3039202295
C 5.4063302481 28.1030369806 49.9347682361
C 5.4063159636 23.6401240245 36.3036826493
C 15.4392810145 29.0890819598 40.887688637
C 1.8081881664 29.0889816092 45.3506516045
C 15.4393750903 22.6538136308 45.350527421
C 1.808525973 22.6540049665 40.8876555456
C 15.4393321505 23.6398385648 46.3367510691
C 1.8082092224 28.1028171241 46.3367360361
C 15.4393548208 28.1029530153 39.9015663846
C 1.8085546973 23.6402003387 39.9016009973
C 6.3924245351 29.0892068193 49.9348310591
C 10.8553206815 29.089162917 36.3039418857
C 10.8553638007 22.6539893193 49.9348308694
C 6.3924287021 22.6539870047 36.3036874408
C 11.8413873963 32.6871276475 40.887746848
C 11.8413311722 19.0559698516 45.3506333564
C 5.406168413 32.6869922565 45.3506859032
C 5.4061965233 19.0561000303 40.887907224
C 15.0162935834 24.063234311 37.7129792392
C 2.2315447259 27.6799797136 37.7128732935
C 2.2313507065 24.0631520808 48.5254811118
C 15.0161642291 27.6798178888 48.5254759444
C 3.2175306766 32.2638270465 41.3109437213
C 3.2175211248 19.4790836531 44.9275527533
C 14.0300768275 19.4791484113 41.3108641646
C 14.0301248382 32.2640071574 44.9276334759
C 6.8155915837 20.4652430811 49.5115212617
C 10.4322905244 20.4652712397 36.7268247164
C 6.8154869695 31.2778515066 36.726944957
C 10.4322703619 31.2778271528 49.5117659686
C 6.8154381861 32.2639780915 37.713066209
C 10.4322561498 19.4791840002 37.7129901535
C 6.8155662985 19.4790534282 48.5254709322
C 10.4322049448 32.2638483371 48.5255345452
C 15.0161900903 20.465304683 41.3108021108
C 2.2314608779 20.4652694528 44.9274822136
C 2.2313505133 31.2777365886 41.3109478194
C 15.0161764371 31.2778096878 44.9276134376
C 3.2175830302 24.063213631 49.5115165116
C 3.2176312755 27.6799801551 36.7266946308
C 14.0301254177 24.0632718868 36.7268791777
C 14.0301186394 27.679941334 49.5116919725
C 6.9535851363 18.7413083907 44.7895685385
C 10.294158352 33.0015511695 44.7895015553
C 10.2942094121 18.7414931411 41.4489832287
C 6.9535491266 33.0017722091 41.4489166733
C 10.2941215247 24.2012679576 35.9891631888
C 10.2940989613 27.5419296506 50.2495689377
C 6.9535665019 27.5418249432 35.9891394525
C 6.9535661363 24.2011976387 50.2493018605
C 1.4937162647 27.5419927461 41.4489949606
C 15.7537604052 27.5417625755 44.7895377169
C 1.4936826351 24.2013278037 44.7895237842
C 15.7541635874 24.2012833771 41.4488696043
C 15.5774896736 27.3653002944 36.1657597122
C 1.6703957979 24.3778701935 36.16569048
C 1.6702599688 27.3652278264 50.072726669
C 15.5772292643 24.3778371159 50.0729307852
C 1.6702779754 32.8250483321 44.6129926433
C 1.6703427681 18.9179510517 41.625441843
C 15.5775565463 18.9181497556 44.6128766732
C 15.577398892 32.8250469454 41.6255586376
C 10.117614503 18.9179515277 50.0728314557
C 7.1301471333 18.9180751455 36.165727497
C 10.1175436564 32.825234521 36.1658922849
C 7.1301936987 32.8250913065 50.0729098016
C 6.5036575671 17.368108667 62.4871318773
C 10.7439990929 34.3747738705 62.4870677986
C 10.744038804 17.3682870669 58.2467837008
C 6.5036289463 34.3749719466 58.2467861397
C 10.74402424 23.7514147122 51.863661147
C 10.7439972439 27.9917828615 68.8704806416
C 6.5037191035 27.9917424536 51.8636345476
C 6.5036800133 23.7513293982 68.8702080244
C 0.1204916595 27.991784024 58.2467494193
C 17.1270004781 27.9916046479 62.4870990204
C 0.1204797896 23.7513418027 62.4870429068
C 17.1273768333 23.7514243157 58.2466795558
C 15.1275890349 25.9920962347 53.8633198705
C 2.1202474358 25.7511051508 53.8632122552
C 2.1201254083 25.9920171747 66.870561909
C 15.1274042051 25.75103339 66.870687148
C 2.120141121 32.3751365445 60.4874966452
C 2.1201785657 19.3678266605 60.2463633057
C 15.1275932537 19.3679508508 60.4873691122
C 15.1274957628 32.3752013097 60.2464629732
C 8.7444019368 19.3677940658 66.8706221414
C 8.5033814214 19.3679272042 53.8632932366
C 8.7443223421 32.3753196875 53.8634183894
C 8.5033962544 32.3752011199 66.870719177
C 6.3922740834 32.686971166 63.5845446655
C 10.8551832622 19.0559381054 63.5844395753
C 10.8551965877 32.6871464096 57.1493710437
C 6.3923053638 19.0561588243 57.1494592933
C 11.8414538758 23.6401696999 67.1825297621
C 11.841441523 28.1030389917 53.5516202295
C 5.4063302481 28.1030369806 67.1824682361
C 5.4063159636 23.6401240245 53.5513826493
C 15.4392810145 29.0890819598 58.135388637
C 1.8081881664 29.0889816092 62.598351601
C 15.4393750903 22.6538136308 62.598227421
C 1.808525973 22.6540049665 58.1353555456
C 15.4393321505 23.6398385648 63.5844510657
C 1.8082092224 28.1028171241 63.5844360361
C 15.4393548208 28.1029530153 57.1492663812
C 1.8085546973 23.6402003387 57.1493009939
C 6.3924245351 29.0892068193 67.1825310591
C 10.8553206815 29.089162917 53.5516418857
C 10.8553638007 22.6539893193 67.1825308694
C 6.3924287021 22.6539870047 53.5513874408
C 11.8413873963 32.6871276475 58.135446848
C 11.8413311722 19.0559698516 62.5983333564
C 5.406168413 32.6869922565 62.5983859032
C 5.4061965233 19.0561000303 58.135607224
C 15.0162935834 24.063234311 54.9606792357
C 2.2315447259 27.6799797136 54.9605732935
C 2.2313507065 24.0631520808 65.7731811118
C 15.0161642291 27.6798178888 65.7731759444
C 3.2175306766 32.2638270465 58.5586437213
C 3.2175211248 19.4790836531 62.1752527533
C 14.0300768275 19.4791484113 58.5585641646
C 14.0301248382 32.2640071574 62.1753334759
C 6.8155915837 20.4652430811 66.7592212617
C 10.4322905244 20.4652712397 53.9745247164
C 6.8154869695 31.2778515066 53.974644957
C 10.4322703619 31.2778271528 66.7594659686
C 6.8154381861 32.2639780915 54.9607662124
C 10.4322561498 19.4791840002 54.9606901535
C 6.8155662985 19.4790534282 65.7731709288
C 10.4322049448 32.2638483371 65.7732345452
C 15.0161900903 20.465304683 58.5585021108
C 2.2314608779 20.4652694528 62.1751822136
C 2.2313505133 31.2777365886 58.5586478194
C 15.0161764371 31.2778096878 62.1753134341
C 3.2175830302 24.063213631 66.7592165116
C 3.2176312755 27.6799801551 53.9743946308
C 14.0301254177 24.0632718868 53.9745791777
C 14.0301186394 27.679941334 66.7593919725
C 6.9535851363 18.7413083907 62.037268542
C 10.294158352 33.0015511695 62.0372015553
C 10.2942094121 18.7414931411 58.6966832253
C 6.9535491266 33.0017722091 58.6966166733
C 10.2941215247 24.2012679576 53.2368631888
C 10.2940989613 27.5419296506 67.4972689377
C 6.9535665019 27.5418249432 53.2368394525
C 6.9535661363 24.2011976387 67.4970018605
C 1.4937162647 27.5419927461 58.6966949606
C 15.7537604052 27.5417625755 62.0372377169
C 1.4936826351 24.2013278037 62.0372237842
C 15.7541635874 24.2012833771 58.6965696043
C 15.5774896736 27.3653002944 53.4134597088
C 1.6703957979 24.3778701935 53.41339048
C 1.6702599688 27.3652278264 67.320426669
C 15.5772292643 24.3778371159 67.3206307886
C 1.6702779754 32.8250483321 61.8606926433
C 1.6703427681 18.9179510517 58.873141843
C 15.5775565463 18.9181497556 61.8605766732
C 15.577398892 32.8250469454 58.8732586376
C 10.117614503 18.9179515277 67.3205314591
C 7.1301471333 18.9180751455 53.4134274935
C 10.1175436564 32.825234521 53.4135922884
C 7.1301936987 32.8250913065 67.3206098016
C 23.7513575671 0.120408667 45.2394318807
C 27.9916990929 17.1270738705 45.2393677986
C 27.991738804 0.1205870669 40.9990837008
C 23.7513289463 17.1272719466 40.9990861397
C 27.99172424 6.5037147122 34.6159611436
C 27.9916972405 10.7440828615 51.6227806381
C 23.7514191035 10.7440424536 34.6159345476
C 23.7513800133 6.5036293982 51.6225080244
C 17.3681916595 10.744084024 40.9990494193
C 34.3747004781 10.7439046479 45.2393990204
C 17.3681797862 6.5036418027 45.2393429068
C 34.3750768333 6.5037243157 40.9989795592
C 32.3752890349 8.7443962347 36.6156198705
C 19.3679474358 8.5034051508 36.6155122552
C 19.3678254083 8.7443171747 49.622861909
C 32.3751042051 8.5033333865 49.622987148
C 19.367841121 15.1274365445 43.2397966452
C 19.3678785657 2.1201266605 42.9986633057
C 32.3752932537 2.1202508508 43.2396691122
C 32.3751957628 15.1275013062 42.9987629732
C 25.9921019368 2.1200940658 49.622922138
C 25.7510814214 2.1202272042 36.6155932332
C 25.9920223421 15.1276196875 36.6157183894
C 25.7510962544 15.1275011199 49.623019177
C 23.6399740834 15.439271166 46.3368446655
C 28.1028832622 1.808238102 46.3367395787
C 28.1028965912 15.4394464096 39.9016710437
C 23.6400053638 1.8084588208 39.9017592933
C 29.0891538792 6.3924696999 49.9348297621
C 29.089141523 10.8553389917 36.3039202295
C 22.6540302481 10.8553369806 49.9347682361
C 22.6540159636 6.392424028 36.3036826493
C 32.6869810179 11.8413819598 40.887688637
C 19.0558881664 11.8412816127 45.3506516045
C 32.6870750869 5.4061136308 45.350527421
C 19.056225973 5.4063049665 40.8876555456
C 32.6870321505 6.3921385648 46.3367510691
C 19.0559092224 10.8551171241 46.3367360361
C 32.6870548208 10.8552530153 39.9015663846
C 19.0562546973 6.3925003387 39.9016009973
C 23.6401245351 11.8415068193 49.9348310591
C 28.1030206815 11.841462917 36.3039418857
C 28.1030638042 5.4062893193 49.9348308694
C 23.6401286987 5.4062870047 36.3036874408
C 29.0890873928 15.4394276475 40.887746848
C 29.0890311757 1.8082698516 45.3506333564
C 22.653868413 15.4392922565 45.3506859032
C 22.6538965233 1.8084000303 40.887907224
C 32.2639935834 6.815534311 37.7129792392
C 19.4792447259 10.4322797136 37.7128732935
C 19.4790507065 6.8154520808 48.5254811118
C 32.2638642291 10.4321178888 48.5254759444
C 20.4652306766 15.0161270465 41.3109437213
C 20.4652211248 2.2313836531 44.9275527533
C 31.2777768275 2.2314484113 41.3108641646
C 31.2778248416 15.0163071574 44.9276334759
C 24.0632915837 3.2175430811 49.5115212617
C 27.6799905244 3.2175712397 36.7268247164
C 24.063186966 14.0301515066 36.726944957
C 27.6799703619 14.0301271494 49.5117659686
C 24.0631381861 15.0162780915 37.713066209
C 27.6799561498 2.2314840002 37.7129901535
C 24.0632662985 2.2313534282 48.5254709322
C 27.6799049448 15.0161483405 48.5255345452
C 32.2638900903 3.217604683 41.3108021108
C 19.4791608779 3.2175694528 44.9274822136
C 19.4790505133 14.0300365886 41.3109478194
C 32.2638764371 14.0301096878 44.9276134376
C 20.4652830302 6.815513631 49.5115165116
C 20.4653312755 10.4322801551 36.7266946308
C 31.2778254177 6.8155718868 36.7268791777
C 31.2778186428 10.4322413375 49.5116919725
C 24.2012851363 1.4936083907 44.7895685385
C 27.541858352 15.753851173 44.7895015553
C 27.5419094121 1.4937931411 41.4489832287
C 24.2012491266 15.7540722091 41.4489166733
C 27.5418215247 6.9535679576 35.9891631888
C 27.5417989613 10.2942296506 50.2495689377
C 24.2012665019 10.2941249432 35.9891394525
C 24.2012661363 6.9534976387 50.2493018605
C 18.7414162647 10.2942927461 41.4489949606
C 33.0014604052 10.2940625755 44.7895377169
C 18.7413826351 6.9536278037 44.7895237842
C 33.0018635874 6.9535833771 41.4488696043
C 32.8251896736 10.1176002944 36.1657597122
C 18.9180957979 7.1301701935 36.16569048
C 18.9179599688 10.117527823 50.072726669
C 32.8249292643 7.1301371159 50.0729307852
C 18.9179779754 15.5773483321 44.6129926433
C 18.9180427681 1.6702510517 41.625441843
C 32.8252565463 1.6704497521 44.6128766732
C 32.825098892 15.5773469454 41.6255586376
C 27.365314503 1.6702515277 50.0728314557
C 24.3778471333 1.6703751455 36.165727497
C 27.3652436564 15.5775345176 36.1658922849
C 24.3778936952 15.5773913065 50.0729098016
C 23.7513575671 0.120408667 62.4871318773
C 27.9916990929 17.1270738705 62.4870677986
C 27.991738804 0.1205870669 58.2467837008
C 23.7513289463 17.1272719466 58.2467861397
C 27.99172424 6.5037147122 51.863661147
C 27.9916972405 10.7440828615 68.8704806416
C 23.7514191035 10.7440424536 51.8636345476
C 23.7513800133 6.5036293982 68.8702080244
C 17.3681916595 10.744084024 58.2467494193
C 34.3747004781 10.7439046479 62.4870990204
C 17.3681797862 6.5036418027 62.4870429068
C 34.3750768333 6.5037243157 58.2466795558
C 32.3752890349 8.7443962347 53.8633198705
C 19.3679474358 8.5034051508 53.8632122552
C 19.3678254083 8.7443171747 66.870561909
C 32.3751042051 8.5033333865 66.870687148
C 19.367841121 15.1274365445 60.4874966452
C 19.3678785657 2.1201266605 60.2463633057
C 32.3752932537 2.1202508508 60.4873691122
C 32.3751957628 15.1275013062 60.2464629732
C 25.9921019368 2.1200940658 66.8706221414
C 25.7510814214 2.1202272042 53.8632932366
C 25.9920223421 15.1276196875 53.8634183894
C 25.7510962544 15.1275011199 66.870719177
C 23.6399740834 15.439271166 63.5845446655
C 28.1028832622 1.808238102 63.5844395753
C 28.1028965912 15.4394464096 57.1493710437
C 23.6400053638 1.8084588208 57.1494592933
C 29.0891538792 6.3924696999 67.1825297621
C 29.089141523 10.8553389917 53.5516202295
C 22.6540302481 10.8553369806 67.1824682361
C 22.6540159636 6.392424028 53.5513826493
C 32.6869810179 11.8413819598 58.135388637
C 19.0558881664 11.8412816127 62.598351601
C 32.6870750869 5.4061136308 62.598227421
C 19.056225973 5.4063049665 58.1353555456
C 32.6870321505 6.3921385648 63.5844510657
C 19.0559092224 10.8551171241 63.5844360361
C 32.6870548208 10.8552530153 57.1492663812
C 19.0562546973 6.3925003387 57.1493009939
C 23.6401245351 11.8415068193 67.1825310591
C 28.1030206815 11.841462917 53.5516418857
C 28.1030638042 5.4062893193 67.1825308694
C 23.6401286987 5.4062870047 53.5513874408
C 29.0890873928 15.4394276475 58.135446848
C 29.0890311757 1.8082698516 62.5983333564
C 22.653868413 15.4392922565 62.5983859032
C 22.6538965233 1.8084000303 58.135607224
C 32.2639935834 6.815534311 54.9606792357
C 19.4792447259 10.4322797136 54.9605732935
C 19.4790507065 6.8154520808 65.7731811118
C 32.2638642291 10.4321178888 65.7731759444
C 20.4652306766 15.0161270465 58.5586437213
C 20.4652211248 2.2313836531 62.1752527533
C 31.2777768275 2.2314484113 58.5585641646
C 31.2778248416 15.0163071574 62.1753334759
C 24.0632915837 3.2175430811 66.7592212617
C 27.6799905244 3.2175712397 53.9745247164
C 24.063186966 14.0301515066 53.974644957
C 27.6799703619 14.0301271494 66.7594659686
C 24.0631381861 15.0162780915 54.9607662124
C 27.6799561498 2.2314840002 54.9606901535
C 24.0632662985 2.2313534282 65.7731709288
C 27.6799049448 15.0161483405 65.7732345452
C 32.2638900903 3.217604683 58.5585021108
C 19.4791608779 3.2175694528 62.1751822136
C 19.4790505133 14.0300365886 58.5586478194
C 32.2638764371 14.0301096878 62.1753134341
C 20.4652830302 6.815513631 66.7592165116
C 20.4653312755 10.4322801551 53.9743946308
C 31.2778254177 6.8155718868 53.9745791777
C 31.2778186428 10.4322413375 66.7593919725
C 24.2012851363 1.4936083907 62.037268542
C 27.541858352 15.753851173 62.0372015553
C 27.5419094121 1.4937931411 58.6966832253
C 24.2012491266 15.7540722091 58.6966166733
C 27.5418215247 6.9535679576 53.2368631888
C 27.5417989613 10.2942296506 67.4972689377
C 24.2012665019 10.2941249432 53.2368394525
C 24.2012661363 6.9534976387 67.4970018605
C 18.7414162647 10.2942927461 58.6966949606
C 33.0014604052 10.2940625755 62.0372377169
C 18.7413826351 6.9536278037 62.0372237842
C 33.0018635874 6.9535833771 58.6965696043
C 32.8251896736 10.1176002944 53.4134597088
C 18.9180957979 7.1301701935 53.41339048
C 18.9179599688 10.117527823 67.320426669
C 32.8249292643 7.1301371159 67.3206307886
C 18.9179779754 15.5773483321 61.8606926433
C 18.9180427681 1.6702510517 58.873141843
C 32.8252565463 1.6704497521 61.8605766732
C 32.825098892 15.5773469454 58.8732586376
C 27.365314503 1.6702515277 67.3205314591
C 24.3778471333 1.6703751455 53.4134274935
C 27.3652436564 15.5775345176 53.4135922884
C 24.3778936952 15.5773913065 67.3206098016
C 23.7513575671 17.368108667 45.2394318807
C 27.9916990929 34.3747738705 45.2393677986
C 27.991738804 17.3682870669 40.9990837008
C 23.7513289463 34.3749719466 40.9990861397
C 27.99172424 23.7514147122 34.6159611436
C 27.9916972405 27.9917828615 51.6227806381
C 23.7514191035 27.9917424536 34.6159345476
C 23.7513800133 23.7513293982 51.6225080244
C 17.3681916595 27.991784024 40.9990494193
C 34.3747004781 27.9916046479 45.2393990204
C 17.3681797862 23.7513418027 45.2393429068
C 34.3750768333 23.7514243157 40.9989795592
C 32.3752890349 25.9920962347 36.6156198705
C 19.3679474358 25.7511051508 36.6155122552
C 19.3678254083 25.9920171747 49.622861909
C 32.3751042051 25.75103339 49.622987148
C 19.367841121 32.3751365445 43.2397966452
C 19.3678785657 19.3678266605 42.9986633057
C 32.3752932537 19.3679508508 43.2396691122
C 32.3751957628 32.3752013097 42.9987629732
C 25.9921019368 19.3677940658 49.622922138
C 25.7510814214 19.3679272042 36.6155932332
C 25.9920223421 32.3753196875 36.6157183894
C 25.7510962544 32.3752011199 49.623019177
C 23.6399740834 32.686971166 46.3368446655
C 28.1028832622 19.0559381054 46.3367395787
C 28.1028965912 32.6871464096 39.9016710437
C 23.6400053638 19.0561588243 39.9017592933
C 29.0891538792 23.6401696999 49.9348297621
C 29.089141523 28.1030389917 36.3039202295
C 22.6540302481 28.1030369806 49.9347682361
C 22.6540159636 23.6401240245 36.3036826493
C 32.6869810179 29.0890819598 40.887688637
C 19.0558881664 29.0889816092 45.3506516045
C 32.6870750869 22.6538136308 45.350527421
C 19.056225973 22.6540049665 40.8876555456
C 32.6870321505 23.6398385648 46.3367510691
C 19.0559092224 28.1028171241 46.3367360361
C 32.6870548208 28.1029530153 39.9015663846
C 19.0562546973 23.6402003387 39.9016009973
C 23.6401245351 29.0892068193 49.9348310591
C 28.1030206815 29.089162917 36.3039418857
C 28.1030638042 22.6539893193 49.9348308694
C 23.6401286987 22.6539870047 36.3036874408
C 29.0890873928 32.6871276475 40.887746848
C 29.0890311757 19.0559698516 45.3506333564
C 22.653868413 32.6869922565 45.3506859032
C 22.6538965233 19.0561000303 40.887907224
C 32.2639935834 24.063234311 37.7129792392
C 19.4792447259 27.6799797136 37.7128732935
C 19.4790507065 24.0631520808 48.5254811118
C 32.2638642291 27.6798178888 48.5254759444
C 20.4652306766 32.2638270465 41.3109437213
C 20.4652211248 19.4790836531 44.9275527533
C 31.2777768275 19.4791484113 41.3108641646
C 31.2778248416 32.2640071574 44.9276334759
C 24.0632915837 20.4652430811 49.5115212617
C 27.6799905244 20.4652712397 36.7268247164
C 24.063186966 31.2778515066 36.726944957
C 27.6799703619 31.2778271528 49.5117659686
C 24.0631381861 32.2639780915 37.713066209
C 27.6799561498 19.4791840002 37.7129901535
C 24.0632662985 19.4790534282 48.5254709322
C 27.6799049448 32.2638483371 48.5255345452
C 32.2638900903 20.465304683 41.3108021108
C 19.4791608779 20.4652694528 44.9274822136
C 19.4790505133 31.2777365886 41.3109478194
C 32.2638764371 31.2778096878 44.9276134376
C 20.4652830302 24.063213631 49.5115165116
C 20.4653312755 27.6799801551 36.7266946308
C 31.2778254177 24.0632718868 36.7268791777
C 31.2778186428 27.679941334 49.5116919725
C 24.2012851363 18.7413083907 44.7895685385
C 27.541858352 33.0015511695 44.7895015553
C 27.5419094121 18.7414931411 41.4489832287
C 24.2012491266 33.0017722091 41.4489166733
C 27.5418215247 24.2012679576 35.9891631888
C 27.5417989613 27.5419296506 50.2495689377
C 24.2012665019 27.5418249432 35.9891394525
C 24.2012661363 24.2011976387 50.2493018605
C 18.7414162647 27.5419927461 41.4489949606
C 33.0014604052 27.5417625755 44.7895377169
C 18.7413826351 24.2013278037 44.7895237842
C 33.0018635874 24.2012833771 41.4488696043
C 32.8251896736 27.3653002944 36.1657597122
C 18.9180957979 24.3778701935 36.16569048
C 18.9179599688 27.3652278264 50.072726669
C 32.8249292643 24.3778371159 50.0729307852
C 18.9179779754 32.8250483321 44.6129926433
C 18.9180427681 18.9179510517 41.625441843
C 32.8252565463 18.9181497556 44.6128766732
C 32.825098892 32.8250469454 41.6255586376
C 27.365314503 18.9179515277 50.0728314557
C 24.3778471333 18.9180751455 36.165727497
C 27.3652436564 32.825234521 36.1658922849
C 24.3778936952 32.8250913065 50.0729098016
C 23.7513575671 17.368108667 62.4871318773
C 27.9916990929 34.3747738705 62.4870677986
C 27.991738804 17.3682870669 58.2467837008
C 23.7513289463 34.3749719466 58.2467861397
C 27.99172424 23.7514147122 51.863661147
C 27.9916972405 27.9917828615 68.8704806416
C 23.7514191035 27.9917424536 51.8636345476
C 23.7513800133 23.7513293982 68.8702080244
C 17.3681916595 27.991784024 58.2467494193
C 34.3747004781 27.9916046479 62.4870990204
C 17.3681797862 23.7513418027 62.4870429068
C 34.3750768333 23.7514243157 58.2466795558
C 32.3752890349 25.9920962347 53.8633198705
C 19.3679474358 25.7511051508 53.8632122552
C 19.3678254083 25.9920171747 66.870561909
C 32.3751042051 25.75103339 66.870687148
C 19.367841121 32.3751365445 60.4874966452
C 19.3678785657 19.3678266605 60.2463633057
C 32.3752932537 19.3679508508 60.4873691122
C 32.3751957628 32.3752013097 60.2464629732
C 25.9921019368 19.3677940658 66.8706221414
C 25.7510814214 19.3679272042 53.8632932366
C 25.9920223421 32.3753196875 53.8634183894
C 25.7510962544 32.3752011199 66.870719177
C 23.6399740834 32.686971166 63.5845446655
C 28.1028832622 19.0559381054 63.5844395753
C 28.1028965912 32.6871464096 57.1493710437
C 23.6400053638 19.0561588243 57.1494592933
C 29.0891538792 23.6401696999 67.1825297621
C 29.089141523 28.1030389917 53.5516202295
C 22.6540302481 28.1030369806 67.1824682361
C 22.6540159636 23.6401240245 53.5513826493
C 32.6869810179 29.0890819598 58.135388637
C 19.0558881664 29.0889816092 62.598351601
C 32.6870750869 22.6538136308 62.598227421
C 19.056225973 22.6540049665 58.1353555456
C 32.6870321505 23.6398385648 63.5844510657
C 19.0559092224 28.1028171241 63.5844360361
C 32.6870548208 28.1029530153 57.1492663812
C 19.0562546973 23.6402003387 57.1493009939
C 23.6401245351 29.0892068193 67.1825310591
C 28.1030206815 29.089162917 53.5516418857
C 28.1030638042 22.6539893193 67.1825308694
C 23.6401286987 22.6539870047 53.5513874408
C 29.0890873928 32.6871276475 58.135446848
C 29.0890311757 19.0559698516 62.5983333564
C 22.653868413 32.6869922565 62.5983859032
C 22.6538965233 19.0561000303 58.135607224
C 32.2639935834 24.063234311 54.9606792357
C 19.4792447259 27.6799797136 54.9605732935
C 19.4790507065 24.0631520808 65.7731811118
C 32.2638642291 27.6798178888 65.7731759444
C 20.4652306766 32.2638270465 58.5586437213
C 20.4652211248 19.4790836531 62.1752527533
C 31.2777768275 19.4791484113 58.5585641646
C 31.2778248416 32.2640071574 62.1753334759
C 24.0632915837 20.4652430811 66.7592212617
C 27.6799905244 20.4652712397 53.9745247164
C 24.063186966 31.2778515066 53.974644957
C 27.6799703619 31.2778271528 66.7594659686
C 24.0631381861 32.2639780915 54.9607662124
C 27.6799561498 19.4791840002 54.9606901535
C 24.0632662985 19.4790534282 65.7731709288
C 27.6799049448 32.2638483371 65.7732345452
C 32.2638900903 20.465304683 58.5585021108
C 19.4791608779 20.4652694528 62.1751822136
C 19.4790505133 31.2777365886 58.5586478194
C 32.2638764371 31.2778096878 62.1753134341
C 20.4652830302 24.063213631 66.7592165116
C 20.4653312755 27.6799801551 53.9743946308
C 31.2778254177 24.0632718868 53.9745791777
C 31.2778186428 27.679941334 66.7593919725
C 24.2012851363 18.7413083907 62.037268542
C 27.541858352 33.0015511695 62.0372015553
C 27.5419094121 18.7414931411 58.6966832253
C 24.2012491266 33.0017722091 58.6966166733
C 27.5418215247 24.2012679576 53.2368631888
C 27.5417989613 27.5419296506 67.4972689377
C 24.2012665019 27.5418249432 53.2368394525
C 24.2012661363 24.2011976387 67.4970018605
C 18.7414162647 27.5419927461 58.6966949606
C 33.0014604052 27.5417625755 62.0372377169
C 18.7413826351 24.2013278037 62.0372237842
C 33.0018635874 24.2012833771 58.6965696043
C 32.8251896736 27.3653002944 53.4134597088
C 18.9180957979 24.3778701935 53.41339048
C 18.9179599688 27.3652278264 67.320426669
C 32.8249292643 24.3778371159 67.3206307886
C 18.9179779754 32.8250483321 61.8606926433
C 18.9180427681 18.9179510517 58.873141843
C 32.8252565463 18.9181497556 61.8605766732
C 32.825098892 32.8250469454 58.8732586376
C 27.365314503 18.9179515277 67.3205314591
C 24.3778471333 18.9180751455 53.4134274935
C 27.3652436564 32.825234521 53.4135922884
C 24.3778936952 32.8250913065 67.3206098016
Zn 8.6238463504 -1.5904304495e-04 47.4311967838
Zn 8.6237767214 1.5681609715e-04 38.80739931
Zn 12.9357525538 8.6239741076 34.4955267396
Zn 4.3119773778 8.6238438564 34.4952982146
Zn -1.365468904e-04 12.9357270583 43.1192764476
Zn 1.1251926891e-04 4.3119706616 43.1190518308
Zn -1.7477512255e-04 8.6237034739 47.4311706501
Zn 1.5616825623e-04 8.6239182491 38.8073119573
Zn 8.6239027538 12.935860828 34.4955859293
Zn 8.623889956 4.3119035025 34.4953725408
Zn 12.9358452395 2.609909377e-05 43.1192515661
Zn 4.311881215 -6.9592510106e-05 43.1192636981
Zn 8.6238463504 -1.5904304495e-04 64.6788967838
Zn 8.6237767214 1.5681609715e-04 56.05509931
Zn 12.9357525538 8.6239741076 51.7432267395
Zn 4.3119773778 8.6238438564 51.7429982144
Zn -1.365468904e-04 12.9357270583 60.3669764442
Zn 1.1251926891e-04 4.3119706616 60.3667518308
Zn -1.7477512255e-04 8.6237034739 64.6788706501
Zn 1.5616825623e-04 8.6239182491 56.0550119573
Zn 8.6239027538 12.935860828 51.7432859302
Zn 8.623889956 4.3119035025 51.7430725417
Zn 12.9358452395 2.609909377e-05 60.3669515661
Zn 4.311881215 -6.9592510106e-05 60.3669636981
Zn 8.6238463504 17.2475409555 47.4311967838
Zn 8.6237767214 17.2478568161 38.80739931
Zn 12.9357525538 25.8716741076 34.4955267396
Zn 4.3119773778 25.8715438564 34.4952982146
Zn -1.365468904e-04 30.1834270583 43.1192764476
Zn 1.1251926891e-04 21.5596706581 43.1190518308
Zn -1.7477512255e-04 25.8714034739 47.4311706501
Zn 1.5616825623e-04 25.8716182491 38.8073119573
Zn 8.6239027538 30.183560828 34.4955859293
Zn 8.623889956 21.5596035025 34.4953725408
Zn 12.9358452395 17.2477260992 43.1192515661
Zn 4.311881215 17.247630409 43.1192636981
Zn 8.6238463504 17.2475409555 64.6788967838
Zn 8.6237767214 17.2478568161 56.05509931
Zn 12.9357525538 25.8716741076 51.7432267395
Zn 4.3119773778 25.8715438564 51.7429982144
Zn -1.365468904e-04 30.1834270583 60.3669764442
Zn 1.1251926891e-04 21.5596706581 60.3667518308
Zn -1.7477512255e-04 25.8714034739 64.6788706501
Zn 1.5616825623e-04 25.8716182491 56.0550119573
Zn 8.6239027538 30.183560828 51.7432859302
Zn 8.623889956 21.5596035025 51.7430725417
Zn 12.9358452395 17.2477260992 60.3669515661
Zn 4.311881215 17.247630409 60.3669636981
Zn 25.8715463504 -1.5904304495e-04 47.4311967838
Zn 25.8714767249 1.5681609715e-04 38.80739931
Zn 30.1834525538 8.6239741076 34.4955267396
Zn 21.5596773744 8.6238438564 34.4952982146
Zn 17.2475634534 12.9357270583 43.1192764476
Zn 17.2478125205 4.3119706616 43.1190518308
Zn 17.2475252256 8.6237034739 47.4311706501
Zn 17.2478561676 8.6239182491 38.8073119573
Zn 25.8716027538 12.935860828 34.4955859293
Zn 25.871589956 4.3119035025 34.4953725408
Zn 30.1835452395 2.609909377e-05 43.1192515661
Zn 21.559581215 -6.9592510106e-05 43.1192636981
Zn 25.8715463504 -1.5904304495e-04 64.6788967838
Zn 25.8714767249 1.5681609715e-04 56.05509931
Zn 30.1834525538 8.6239741076 51.7432267395
Zn 21.5596773744 8.6238438564 51.7429982144
Zn 17.2475634534 12.9357270583 60.3669764442
Zn 17.2478125205 4.3119706616 60.3667518308
Zn 17.2475252256 8.6237034739 64.6788706501
Zn 17.2478561676 8.6239182491 56.0550119573
Zn 25.8716027538 12.935860828 51.7432859302
Zn 25.871589956 4.3119035025 51.7430725417
Zn 30.1835452395 2.609909377e-05 60.3669515661
Zn 21.559581215 -6.9592510106e-05 60.3669636981
Zn 25.8715463504 17.2475409555 47.4311967838
Zn 25.8714767249 17.2478568161 38.80739931
Zn 30.1834525538 25.8716741076 34.4955267396
Zn 21.5596773744 25.8715438564 34.4952982146
Zn 17.2475634534 30.1834270583 43.1192764476
Zn 17.2478125205 21.5596706581 43.1190518308
Zn 17.2475252256 25.8714034739 47.4311706501
Zn 17.2478561676 25.8716182491 38.8073119573
Zn 25.8716027538 30.183560828 34.4955859293
Zn 25.871589956 21.5596035025 34.4953725408
Zn 30.1835452395 17.2477260992 43.1192515661
Zn 21.559581215 17.247630409 43.1192636981
Zn 25.8715463504 17.2475409555 64.6788967838
Zn 25.8714767249 17.2478568161 56.05509931
Zn 30.1834525538 25.8716741076 51.7432267395
Zn 21.5596773744 25.8715438564 51.7429982144
Zn 17.2475634534 30.1834270583 60.3669764442
Zn 17.2478125205 21.5596706581 60.3667518308
Zn 17.2475252256 25.8714034739 64.6788706501
Zn 17.2478561676 25.8716182491 56.0550119573
Zn 25.8716027538 30.183560828 51.7432859302
Zn 25.871589956 21.5596035025 51.7430725417
Zn 30.1835452395 17.2477260992 60.3669515661
Zn 21.559581215 17.247630409 60.3669636981
N 7.0791951991 16.659920844 46.2645278708
N 10.1683635043 0.5875350804 46.2644218009
N 10.1683595787 16.660126026 39.9740451249
N 7.0791956959 0.5878023852 39.9740359147
N 11.769082599 7.0793518255 51.1554890539
N 11.7690804189 10.1684873876 35.0832432933
N 5.4786764295 10.1684280107 51.1554119463
N 5.4786335655 7.0792580877 35.0829927084
N 16.6599447493 11.7691175774 41.57460423
N 0.5874738373 11.7689990546 44.6638327331
N 16.6600398945 5.4785983354 44.6636439191
N 0.5878339382 5.4786116954 41.5745115236
N 16.6599803761 7.0790804536 46.2644823472
N 0.5875167426 10.1682565478 46.2644161126
N 16.6600632755 10.1684437199 39.9739628603
N 0.587889086 7.0793792252 39.9739705942
N 7.0792945873 11.7691619143 51.155508223
N 10.1684267723 11.7691439491 35.0832774507
N 10.1684745484 5.4786109538 51.1554898335
N 7.079275532 5.4785734642 35.0830013599
N 11.7691291437 16.660091441 41.5746248272
N 11.7690632678 0.5875887483 44.6637887169
N 5.478569511 16.6599553394 44.6638135812
N 5.4785547918 0.5877023727 41.5747197379
N 15.7031962786 8.0361939166 37.6406645866
N 1.5446999691 9.2115833669 37.6406022017
N 1.5444399049 8.0360944457 48.5978666076
N 15.7029597747 9.2114121282 48.5978235125
N 3.1452379044 15.7029923315 42.5316147657
N 3.145185292 1.5444888055 43.7069021336
N 14.1024884018 1.5446122025 42.5315520082
N 14.1024867011 15.7031686582 43.7069626938
N 8.0362555289 3.1452315642 50.1984248675
N 9.2116022876 3.1452461316 36.0399563648
N 8.0361834335 14.1025211138 36.0401135948
N 9.2116217395 14.1025087851 50.1986853492
N 8.0360992785 15.7031953749 37.6407604114
N 9.2115427589 1.5446585195 37.6406885264
N 8.0362114679 1.544437604 48.5978866287
N 9.2115219443 15.7029987097 48.5978577699
N 15.7031325691 3.1453159054 42.5314393048
N 1.5446264456 3.145248598 43.7067863912
N 1.5444828551 14.1023973684 42.5316186912
N 15.7030259852 14.1023987793 43.7069318031
N 3.1452898476 8.0361945617 50.1983678949
N 3.1452788677 9.2115972133 36.0398505984
N 14.1024803574 8.0362485608 36.0400317269
N 14.1024326331 9.2116110736 50.1986263103
N 7.0791951991 16.659920844 63.5122278708
N 10.1683635043 0.5875350804 63.5121217974
N 10.1683595787 16.660126026 57.2217451249
N 7.0791956959 0.5878023852 57.2217359147
N 11.769082599 7.0793518255 68.4031890504
N 11.7690804189 10.1684873876 52.3309432933
N 5.4786764295 10.1684280107 68.4031119463
N 5.4786335655 7.0792580877 52.330692705
N 16.6599447493 11.7691175774 58.82230423
N 0.5874738373 11.7689990546 61.9115327331
N 16.6600398945 5.4785983354 61.9113439191
N 0.5878339382 5.4786116954 58.8222115236
N 16.6599803761 7.0790804536 63.5121823472
N 0.5875167426 10.1682565478 63.5121161126
N 16.6600632755 10.1684437199 57.2216628603
N 0.587889086 7.0793792252 57.2216705942
N 7.0792945873 11.7691619143 68.403208223
N 10.1684267723 11.7691439491 52.3309774507
N 10.1684745484 5.4786109538 68.4031898335
N 7.079275532 5.4785734642 52.3307013599
N 11.7691291437 16.660091441 58.8223248272
N 11.7690632678 0.5875887483 61.9114887204
N 5.478569511 16.6599553394 61.9115135812
N 5.4785547918 0.5877023727 58.8224197379
N 15.7031962786 8.0361939166 54.8883645866
N 1.5446999691 9.2115833669 54.8883022017
N 1.5444399049 8.0360944457 65.8455666076
N 15.7029597747 9.2114121282 65.8455235125
N 3.1452379044 15.7029923315 59.7793147657
N 3.145185292 1.5444888055 60.9546021371
N 14.1024884018 1.5446122025 59.7792520047
N 14.1024867011 15.7031686582 60.9546626903
N 8.0362555289 3.1452315642 67.4461248675
N 9.2116022876 3.1452461316 53.2876563648
N 8.0361834335 14.1025211138 53.2878135914
N 9.2116217395 14.1025087851 67.4463853458
N 8.0360992785 15.7031953749 54.8884604114
N 9.2115427589 1.5446585195 54.8883885264
N 8.0362114679 1.544437604 65.8455866287
N 9.2115219443 15.7029987097 65.8455577699
N 15.7031325691 3.1453159054 59.7791393048
N 1.5446264456 3.145248598 60.9544863878
N 1.5444828551 14.1023973684 59.7793186912
N 15.7030259852 14.1023987793 60.9546318031
N 3.1452898476 8.0361945617 67.4460678915
N 3.1452788677 9.2115972133 53.2875505984
N 14.1024803574 8.0362485608 53.2877317269
N 14.1024326331 9.2116110736 67.4463263103
N 7.0791951991 33.907620844 46.2645278708
N 10.1683635043 17.8352350804 46.2644218009
N 10.1683595787 33.907826026 39.9740451249
N 7.0791956959 17.8355023852 39.9740359147
N 11.769082599 24.3270518255 51.1554890539
N 11.7690804189 27.4161873841 35.0832432933
N 5.4786764295 27.4161280107 51.1554119463
N 5.4786335655 24.3269580843 35.0829927084
N 16.6599447493 29.0168175774 41.57460423
N 0.5874738373 29.0166990546 44.6638327331
N 16.6600398945 22.7262983354 44.6636439191
N 0.5878339382 22.7263116954 41.5745115236
N 16.6599803761 24.3267804536 46.2644823472
N 0.5875167426 27.4159565478 46.2644161126
N 16.6600632755 27.4161437199 39.9739628603
N 0.587889086 24.3270792252 39.9739705942
N 7.0792945873 29.0168619143 51.155508223
N 10.1684267723 29.0168439491 35.0832774507
N 10.1684745484 22.7263109572 51.1554898335
N 7.079275532 22.7262734642 35.0830013599
N 11.7691291437 33.907791441 41.5746248272
N 11.7690632678 17.8352887483 44.6637887169
N 5.478569511 33.9076553394 44.6638135812
N 5.4785547918 17.8354023762 41.5747197379
N 15.7031962786 25.2838939201 37.6406645866
N 1.5446999691 26.4592833634 37.6406022017
N 1.5444399049 25.2837944457 48.5978666076
N 15.7029597747 26.4591121248 48.5978235125
N 3.1452379044 32.9506923315 42.5316147657
N 3.145185292 18.7921888055 43.7069021336
N 14.1024884018 18.7923122059 42.5315520082
N 14.1024867011 32.9508686582 43.7069626938
N 8.0362555289 20.3929315642 50.1984248675
N 9.2116022876 20.3929461316 36.0399563648
N 8.0361834335 31.3502211138 36.0401135948
N 9.2116217395 31.3502087886 50.1986853492
N 8.0360992785 32.9508953749 37.6407604114
N 9.2115427589 18.792358516 37.6406885264
N 8.0362114679 18.792137604 48.5978866287
N 9.2115219443 32.9506987097 48.5978577699
N 15.7031325691 20.3930159054 42.5314393048
N 1.5446264456 20.392948598 43.7067863912
N 1.5444828551 31.3500973684 42.5316186912
N 15.7030259852 31.3500987793 43.7069318031
N 3.1452898476 25.2838945617 50.1983678949
N 3.1452788677 26.4592972133 36.0398505984
N 14.1024803574 25.2839485608 36.0400317269
N 14.1024326331 26.4593110701 50.1986263103
N 7.0791951991 33.907620844 63.5122278708
N 10.1683635043 17.8352350804 63.5121217974
N 10.1683595787 33.907826026 57.2217451249
N 7.0791956959 17.8355023852 57.2217359147
N 11.769082599 24.3270518255 68.4031890504
N 11.7690804189 27.4161873841 52.3309432933
N 5.4786764295 27.4161280107 68.4031119463
N 5.4786335655 24.3269580843 52.330692705
N 16.6599447493 29.0168175774 58.82230423
N 0.5874738373 29.0166990546 61.9115327331
N 16.6600398945 22.7262983354 61.9113439191
N 0.5878339382 22.7263116954 58.8222115236
N 16.6599803761 24.3267804536 63.5121823472
N 0.5875167426 27.4159565478 63.5121161126
N 16.6600632755 27.4161437199 57.2216628603
N 0.587889086 24.3270792252 57.2216705942
N 7.0792945873 29.0168619143 68.403208223
N 10.1684267723 29.0168439491 52.3309774507
N 10.1684745484 22.7263109572 68.4031898335
N 7.079275532 22.7262734642 52.3307013599
N 11.7691291437 33.907791441 58.8223248272
N 11.7690632678 17.8352887483 61.9114887204
N 5.478569511 33.9076553394 61.9115135812
N 5.4785547918 17.8354023762 58.8224197379
N 15.7031962786 25.2838939201 54.8883645866
N 1.5446999691 26.4592833634 54.8883022017
N 1.5444399049 25.2837944457 65.8455666076
N 15.7029597747 26.4591121248 65.8455235125
N 3.1452379044 32.9506923315 59.7793147657
N 3.145185292 18.7921888055 60.9546021371
N 14.1024884018 18.7923122059 59.7792520047
N 14.1024867011 32.9508686582 60.9546626903
N 8.0362555289 20.3929315642 67.4461248675
N 9.2116022876 20.3929461316 53.2876563648
N 8.0361834335 31.3502211138 53.2878135914
N 9.2116217395 31.3502087886 67.4463853458
N 8.0360992785 32.9508953749 54.8884604114
N 9.2115427589 18.792358516 54.8883885264
N 8.0362114679 18.792137604 65.8455866287
N 9.2115219443 32.9506987097 65.8455577699
N 15.7031325691 20.3930159054 59.7791393048
N 1.5446264456 20.392948598 60.9544863878
N 1.5444828551 31.3500973684 59.7793186912
N 15.7030259852 31.3500987793 60.9546318031
N 3.1452898476 25.2838945617 67.4460678915
N 3.1452788677 26.4592972133 53.2875505984
N 14.1024803574 25.2839485608 53.2877317269
N 14.1024326331 26.4593110701 67.4463263103
N 24.3268951991 16.659920844 46.2645278708
N 27.4160635077 0.5875350804 46.2644218009
N 27.4160595787 16.660126026 39.9740451249
N 24.3268956959 0.5878023852 39.9740359147
N 29.016782599 7.0793518255 51.1554890539
N 29.0167804189 10.1684873876 35.0832432933
N 22.7263764295 10.1684280107 51.1554119463
N 22.7263335655 7.0792580877 35.0829927084
N 33.9076447493 11.7691175774 41.57460423
N 17.8351738373 11.7689990546 44.6638327331
N 33.9077398945 5.4785983354 44.6636439191
N 17.8355339382 5.4786116954 41.5745115236
N 33.9076803761 7.0790804536 46.2644823472
N 17.8352167426 10.1682565478 46.2644161126
N 33.907763272 10.1684437199 39.9739628603
N 17.835589086 7.0793792252 39.9739705942
N 24.3269945873 11.7691619143 51.155508223
N 27.4161267723 11.7691439491 35.0832774507
N 27.4161745484 5.4786109538 51.1554898335
N 24.3269755286 5.4785734642 35.0830013599
N 29.0168291437 16.660091441 41.5746248272
N 29.0167632678 0.5875887483 44.6637887169
N 22.726269511 16.6599553394 44.6638135812
N 22.7262547884 0.5877023727 41.5747197379
N 32.9508962786 8.0361939166 37.6406645866
N 18.7923999691 9.2115833669 37.6406022017
N 18.7921399049 8.0360944457 48.5978666076
N 32.9506597747 9.2114121282 48.5978235125
N 20.3929379044 15.7029923315 42.5316147657
N 20.392885292 1.5444888055 43.7069021336
N 31.3501884052 1.5446122025 42.5315520082
N 31.3501867046 15.7031686582 43.7069626938
N 25.2839555289 3.1452315642 50.1984248675
N 26.4593022876 3.1452461316 36.0399563648
N 25.2838834335 14.1025211138 36.0401135948
N 26.4593217395 14.1025087851 50.1986853492
N 25.2837992785 15.7031953749 37.6407604114
N 26.4592427589 1.5446585195 37.6406885264
N 25.2839114645 1.544437604 48.5978866287
N 26.4592219443 15.7029987097 48.5978577699
N 32.9508325691 3.1453159054 42.5314393048
N 18.7923264491 3.145248598 43.7067863912
N 18.7921828551 14.1023973684 42.5316186912
N 32.9507259852 14.1023987793 43.7069318031
N 20.3929898476 8.0361945617 50.1983678949
N 20.3929788712 9.2115972133 36.0398505984
N 31.3501803574 8.0362485608 36.0400317269
N 31.3501326331 9.2116110736 50.1986263103
N 24.3268951991 16.659920844 63.5122278708
N 27.4160635077 0.5875350804 63.5121217974
N 27.4160595787 16.660126026 57.2217451249
N 24.3268956959 0.5878023852 57.2217359147
N 29.016782599 7.0793518255 68.4031890504
N 29.0167804189 10.1684873876 52.3309432933
N 22.7263764295 10.1684280107 68.4031119463
N 22.7263335655 7.0792580877 52.330692705
N 33.9076447493 11.7691175774 58.82230423
N 17.8351738373 11.7689990546 61.9115327331
N 33.9077398945 5.4785983354 61.9113439191
N 17.8355339382 5.4786116954 58.8222115236
N 33.9076803761 7.0790804536 63.5121823472
N 17.8352167426 10.1682565478 63.5121161126
N 33.907763272 10.1684437199 57.2216628603
N 17.835589086 7.0793792252 57.2216705942
N 24.3269945873 11.7691619143 68.403208223
N 27.4161267723 11.7691439491 52.3309774507
N 27.4161745484 5.4786109538 68.4031898335
N 24.3269755286 5.4785734642 52.3307013599
N 29.0168291437 16.660091441 58.8223248272
N 29.0167632678 0.5875887483 61.9114887204
N 22.726269511 16.6599553394 61.9115135812
N 22.7262547884 0.5877023727 58.8224197379
N 32.9508962786 8.0361939166 54.8883645866
N 18.7923999691 9.2115833669 54.8883022017
N 18.7921399049 8.0360944457 65.8455666076
N 32.9506597747 9.2114121282 65.8455235125
N 20.3929379044 15.7029923315 59.7793147657
N 20.392885292 1.5444888055 60.9546021371
N 31.3501884052 1.5446122025 59.7792520047
N 31.3501867046 15.7031686582 60.9546626903
N 25.2839555289 3.1452315642 67.4461248675
N 26.4593022876 3.1452461316 53.2876563648
N 25.2838834335 14.1025211138 53.2878135914
N 26.4593217395 14.1025087851 67.4463853458
N 25.2837992785 15.7031953749 54.8884604114
N 26.4592427589 1.5446585195 54.8883885264
N 25.2839114645 1.544437604 65.8455866287
N 26.4592219443 15.7029987097 65.8455577699
N 32.9508325691 3.1453159054 59.7791393048
N 18.7923264491 3.145248598 60.9544863878
N 18.7921828551 14.1023973684 59.7793186912
N 32.9507259852 14.1023987793 60.9546318031
N 20.3929898476 8.0361945617 67.4460678915
N 20.3929788712 9.2115972133 53.2875505984
N 31.3501803574 8.0362485608 53.2877317269
N 31.3501326331 9.2116110736 67.4463263103
N 24.3268951991 33.907620844 46.2645278708
N 27.4160635077 17.8352350804 46.2644218009
N 27.4160595787 33.907826026 39.9740451249
N 24.3268956959 17.8355023852 39.9740359147
N 29.016782599 24.3270518255 51.1554890539
N 29.0167804189 27.4161873841 35.0832432933
N 22.7263764295 27.4161280107 51.1554119463
N 22.7263335655 24.3269580843 35.0829927084
N 33.9076447493 29.0168175774 41.57460423
N 17.8351738373 29.0166990546 44.6638327331
N 33.9077398945 22.7262983354 44.6636439191
N 17.8355339382 22.7263116954 41.5745115236
N 33.9076803761 24.3267804536 46.2644823472
N 17.8352167426 27.4159565478 46.2644161126
N 33.907763272 27.4161437199 39.9739628603
N 17.835589086 24.3270792252 39.9739705942
N 24.3269945873 29.0168619143 51.155508223
N 27.4161267723 29.0168439491 35.0832774507
N 27.4161745484 22.7263109572 51.1554898335
N 24.3269755286 22.7262734642 35.0830013599
N 29.0168291437 33.907791441 41.5746248272
N 29.0167632678 17.8352887483 44.6637887169
N 22.726269511 33.9076553394 44.6638135812
N 22.7262547884 17.8354023762 41.5747197379
N 32.9508962786 25.2838939201 37.6406645866
N 18.7923999691 26.4592833634 37.6406022017
N 18.7921399049 25.2837944457 48.5978666076
N 32.9506597747 26.4591121248 48.5978235125
N 20.3929379044 32.9506923315 42.5316147657
N 20.392885292 18.7921888055 43.7069021336
N 31.3501884052 18.7923122059 42.5315520082
N 31.3501867046 32.9508686582 43.7069626938
N 25.2839555289 20.3929315642 50.1984248675
N 26.4593022876 20.3929461316 36.0399563648
N 25.2838834335 31.3502211138 36.0401135948
N 26.4593217395 31.3502087886 50.1986853492
N 25.2837992785 32.9508953749 37.6407604114
N 26.4592427589 18.792358516 37.6406885264
N 25.2839114645 18.792137604 48.5978866287
N 26.4592219443 32.9506987097 48.5978577699
N 32.9508325691 20.3930159054 42.5314393048
N 18.7923264491 20.392948598 43.7067863912
N 18.7921828551 31.3500973684 42.5316186912
N 32.9507259852 31.3500987793 43.7069318031
N 20.3929898476 25.2838945617 50.1983678949
N 20.3929788712 26.4592972133 36.0398505984
N 31.3501803574 25.2839485608 36.0400317269
N 31.3501326331 26.4593110701 50.1986263103
N 24.3268951991 33.907620844 63.5122278708
N 27.4160635077 17.8352350804 63.5121217974
N 27.4160595787 33.907826026 57.2217451249
N 24.3268956959 17.8355023852 57.2217359147
N 29.016782599 24.3270518255 68.4031890504
N 29.0167804189 27.4161873841 52.3309432933
N 22.7263764295 27.4161280107 68.4031119463
N 22.7263335655 24.3269580843 52.330692705
N 33.9076447493 29.0168175774 58.82230423
N 17.8351738373 29.0166990546 61.9115327331
N 33.9077398945 22.7262983354 61.9113439191
N 17.8355339382 22.7263116954 58.8222115236
N 33.9076803761 24.3267804536 63.5121823472
N 17.8352167426 27.4159565478 63.5121161126
N 33.907763272 27.4161437199 57.2216628603
N 17.835589086 24.3270792252 57.2216705942
N 24.3269945873 29.0168619143 68.403208223
N 27.4161267723 29.0168439491 52.3309774507
N 27.4161745484 22.7263109572 68.4031898335
N 24.3269755286 22.7262734642 52.3307013599
N 29.0168291437 33.907791441 58.8223248272
N 29.0167632678 17.8352887483 61.9114887204
N 22.726269511 33.9076553394 61.9115135812
N 22.7262547884 17.8354023762 58.8224197379
N 32.9508962786 25.2838939201 54.8883645866
N 18.7923999691 26.4592833634 54.8883022017
N 18.7921399049 25.2837944457 65.8455666076
N 32.9506597747 26.4591121248 65.8455235125
N 20.3929379044 32.9506923315 59.7793147657
N 20.392885292 18.7921888055 60.9546021371
N 31.3501884052 18.7923122059 59.7792520047
N 31.3501867046 32.9508686582 60.9546626903
N 25.2839555289 20.3929315642 67.4461248675
N 26.4593022876 20.3929461316 53.2876563648
N 25.2838834335 31.3502211138 53.2878135914
N 26.4593217395 31.3502087886 67.4463853458
N 25.2837992785 32.9508953749 54.8884604114
N 26.4592427589 18.792358516 54.8883885264
N 25.2839114645 18.792137604 65.8455866287
N 26.4592219443 32.9506987097 65.8455577699
N 32.9508325691 20.3930159054 59.7791393048
N 18.7923264491 20.392948598 60.9544863878
N 18.7921828551 31.3500973684 59.7793186912
N 32.9507259852 31.3500987793 60.9546318031
N 20.3929898476 25.2838945617 67.4460678915
N 20.3929788712 26.4592972133 53.2875505984
N 31.3501803574 25.2839485608 53.2877317269
N 31.3501326331 26.4593110701 67.4463263103
H 6.6716332244 49.159829627 12.5704588449
H 10.5757207695 37.0785143537 12.5702727767
H 10.5757349505 49.1599807272 4.6773199978
H 6.6716827702 37.0787487983 4.6774042977
H 12.5704285441 41.1673041306 14.6645768637
H 12.5704280543 45.0713268415 2.5833747457
H 4.6773644313 45.0713445618 14.6644755059
H 4.677381065 41.1672588726 2.5831732546
H 14.6643990193 47.0657500291 6.6716451805
H 2.5830551251 47.0656684717 10.575859986
H 14.6645185562 39.1725507358 10.5756444587
H 2.5833669359 39.1726926119 6.6716109852
H 14.6644841091 41.1667988868 12.5703999371
H 2.58312572 45.0710440413 12.5702354734
H 14.6645040888 45.0711993741 4.6771836754
H 2.583445513 41.1673603374 4.6772747192
H 6.6718249464 47.0659196913 14.6646014935
H 10.5759346168 47.0658204584 2.5834231048
H 10.5760136975 39.1726850816 14.6645750458
H 6.6718499625 39.1727449069 2.5831740722
H 12.5703793399 49.1599678535 6.6717126328
H 12.5702881202 37.0785568072 10.5758204336
H 4.6771795808 49.159837078 10.5758642496
H 4.6772346631 37.0786488927 6.6719715864
H 15.2956846672 40.5360662277 3.9465490816
H 1.9521799069 45.7025410495 3.9464576619
H 1.9518668266 40.5359445004 13.3011759897
H 15.2955496867 45.7023200927 13.3010298499
H 3.9465435071 49.7908824345 6.0406962422
H 3.9464554507 36.4473559214 11.2070529207
H 13.3010771569 36.4474103689 6.0406242572
H 13.3012031617 49.7911654451 11.207126282
H 6.0407660333 38.4419934565 15.2954323886
H 11.2071994261 38.4418916019 1.9519793127
H 6.040636196 47.7965535953 1.9521291745
H 11.2071742513 47.7966177808 15.2958314693
H 6.0405525067 49.791059251 3.9466261685
H 11.2071294591 36.4474872764 3.9465632799
H 6.0406738409 36.4473044335 13.3011231738
H 11.2070393329 49.7908790022 13.3010958672
H 15.2955404971 38.4419863194 6.0405267766
H 1.9520876248 38.4419764192 11.2069213794
H 1.9518917254 47.796506133 6.0406649514
H 15.2955496936 47.7965130045 11.2070640213
H 3.9466374519 40.5361019684 15.295449481
H 3.9465518585 45.7025688839 1.9518222827
H 13.3011307455 40.5361169153 1.9520683626
H 13.3012327657 45.702573727 15.2957290042
H 6.4156690982 36.806436581 10.8323577008
H 10.4852318325 50.1147531944 9.2059314784
H 10.8322379156 36.8066091822 6.4154780903
H 6.4155201919 49.4320386271 6.4154350124
H 9.2059190083 41.2579519637 1.6281910313
H 10.83210229 45.3277501912 14.936746853
H 8.0417631231 44.9805302884 1.6282438989
H 6.4155040032 40.91085097 14.9364630455
H 1.6282175824 43.7015041003 6.7626364774
H 14.9363426738 45.327483214 10.8322439523
H 1.6280114517 42.5372534665 10.4850079125
H 14.9367233168 40.9109300542 6.4154148844
H 2.3111357829 40.9111439429 10.8323177862
H 15.6192622024 44.9805082907 9.2059591851
H 2.311144217 45.3277779255 6.4155560637
H 15.6197227505 41.2579967698 8.0416638005
H 6.4154665171 45.3275323596 2.311167191
H 10.4851448248 43.701457942 15.6196679339
H 10.8321745406 40.9109109782 2.3111935489
H 6.7626004539 42.5370937839 15.6194671707
H 9.205993715 36.1236448889 6.7626688203
H 10.8321720362 49.4318439868 10.8322250108
H 8.041824863 36.1233744726 10.4850315833
H 8.0417525675 50.1150862371 6.7625115282
H 15.0394141977 45.4304212649 2.2083957978
H 1.8612767078 41.491130764 0.5820763696
H 2.2082801036 45.430338438 15.039198836
H 15.3862347059 41.491169523 16.6657338294
H 0.5820670283 49.8817898351 10.2520325212
H 2.2085227753 36.7036178187 6.3126363368
H 15.0395464496 36.7039489746 10.9349046049
H 16.665582605 49.8816701982 6.9957140096
H 10.9350459394 36.703611137 15.0392742257
H 6.9956141213 35.0776140201 1.8614266213
H 10.2519856558 51.1611194759 1.8615127253
H 6.9957388566 51.1609675616 15.3864515233
H 10.9349734129 49.5348882111 2.2085569051
H 6.312734183 36.703937222 2.2082971858
H 10.2521152999 36.3567935782 16.66559166
H 6.3127370358 49.5346794863 15.0395343659
H 15.3865749512 35.0776614892 10.2519884189
H 1.861237114 35.0774420053 6.9956313345
H 2.2083142851 49.5346892347 10.9350316204
H 15.0392886207 49.5347451069 6.3127268355
H 0.5820423675 44.747335741 15.3863801523
H 2.2085733387 40.8081871438 2.2082899693
H 16.6656859912 44.7474596001 1.8613917741
H 15.0391353887 40.8081016332 15.0395123337
H 6.7624523479 36.1235244206 9.2060063507
H 9.2059416304 50.1147780311 10.4850007789
H 10.4852889845 36.1236651343 8.0417595425
H 6.7625908504 50.1149910333 8.0417108901
H 10.4851018676 42.5371587353 1.6282389247
H 9.2058826812 44.9805514582 15.6197475527
H 6.762567873 43.7013260074 1.6281314784
H 8.0417709121 41.2579047602 15.6194829282
H 1.628123779 44.9807193128 8.0417892775
H 15.6192907888 43.7012625704 10.4850659786
H 1.6282372585 41.2579255057 9.2059653736
H 15.6197188491 42.5371718573 6.762495443
H 15.3865310938 44.7474392237 0.5821559816
H 0.582223765 41.4910282713 1.8613891835
H 1.8613189612 44.7474262672 16.6655056527
H 16.6654324776 41.4910620975 15.386553571
H 1.8613144975 51.1609341666 10.2520387235
H 0.5821707594 36.3567258672 6.9954805723
H 16.6657690561 36.3568657495 10.2518490299
H 15.3865241706 51.1609544878 6.9957147823
H 10.2520341046 35.0774362377 15.3865805361
H 6.9957328924 36.3566504154 0.5821089126
H 10.252023618 49.881970698 0.5822989374
H 6.9958096032 49.8818841318 16.665724864
H 6.6716332244 49.159829627 29.8181588449
H 10.5757207695 37.0785143537 29.8179727767
H 10.5757349505 49.1599807272 21.9250199978
H 6.6716827702 37.0787487983 21.9251043011
H 12.5704285441 41.1673041306 31.9122768603
H 12.5704280543 45.0713268415 19.8310747457
H 4.6773644313 45.0713445618 31.9121755059
H 4.677381065 41.1672588726 19.8308732546
H 14.6643990193 47.0657500291 23.9193451771
H 2.5830551251 47.0656684717 27.823559986
H 14.6645185562 39.1725507358 27.8233444587
H 2.5833669359 39.1726926119 23.9193109818
H 14.6644841091 41.1667988868 29.8180999371
H 2.58312572 45.0710440413 29.8179354699
H 14.6645040888 45.0711993741 21.9248836754
H 2.583445513 41.1673603374 21.9249747192
H 6.6718249464 47.0659196913 31.9123014935
H 10.5759346168 47.0658204584 19.8311231048
H 10.5760136975 39.1726850816 31.9122750424
H 6.6718499625 39.1727449069 19.8308740687
H 12.5703793399 49.1599678535 23.9194126328
H 12.5702881202 37.0785568072 27.8235204336
H 4.6771795808 49.159837078 27.8235642496
H 4.6772346631 37.0786488927 23.9196715864
H 15.2956846672 40.5360662277 21.1942490816
H 1.9521799069 45.7025410495 21.1941576619
H 1.9518668266 40.5359445004 30.5488759897
H 15.2955496867 45.7023200927 30.5487298499
H 3.9465435071 49.7908824345 23.2883962456
H 3.9464554507 36.4473559214 28.4547529207
H 13.3010771569 36.4474103689 23.2883242572
H 13.3012031617 49.7911654451 28.454826282
H 6.0407660333 38.4419934565 32.5431323886
H 11.2071994261 38.4418916019 19.1996793127
H 6.040636196 47.7965535953 19.1998291745
H 11.2071742513 47.7966177808 32.5435314693
H 6.0405525067 49.791059251 21.1943261719
H 11.2071294591 36.4474872764 21.1942632764
H 6.0406738409 36.4473044335 30.5488231738
H 11.2070393329 49.7908790022 30.5487958638
H 15.2955404971 38.4419863194 23.2882267766
H 1.9520876248 38.4419764192 28.4546213828
H 1.9518917254 47.796506133 23.2883649549
H 15.2955496936 47.7965130045 28.4547640213
H 3.9466374519 40.5361019684 32.5431494776
H 3.9465518585 45.7025688839 19.1995222827
H 13.3011307455 40.5361169153 19.1997683591
H 13.3012327657 45.702573727 32.5434290042
H 6.4156690982 36.806436581 28.0800576974
H 10.4852318325 50.1147531944 26.4536314784
H 10.8322379156 36.8066091822 23.6631780903
H 6.4155201919 49.4320386271 23.6631350124
H 9.2059190083 41.2579519637 18.8758910313
H 10.83210229 45.3277501912 32.184446853
H 8.0417631231 44.9805302884 18.8759438989
H 6.4155040032 40.91085097 32.1841630455
H 1.6282175824 43.7015041003 24.0103364774
H 14.9363426738 45.327483214 28.0799439523
H 1.6280114517 42.5372534665 27.7327079091
H 14.9367233168 40.9109300542 23.6631148878
H 2.3111357829 40.9111439429 28.0800177862
H 15.6192622024 44.9805082907 26.4536591851
H 2.311144217 45.3277779255 23.6632560672
H 15.6197227505 41.2579967698 25.2893638005
H 6.4154665171 45.3275323596 19.558867191
H 10.4851448248 43.701457942 32.8673679339
H 10.8321745406 40.9109109782 19.5588935455
H 6.7626004539 42.5370937839 32.8671671707
H 9.205993715 36.1236448889 24.0103688203
H 10.8321720362 49.4318439868 28.0799250108
H 8.041824863 36.1233744726 27.7327315833
H 8.0417525675 50.1150862371 24.0102115282
H 15.0394141977 45.4304212649 19.4560957978
H 1.8612767078 41.491130764 17.8297763696
H 2.2082801036 45.430338438 32.286898836
H 15.3862347059 41.491169523 33.9134338294
H 0.5820670283 49.8817898351 27.4997325212
H 2.2085227753 36.7036178187 23.5603363368
H 15.0395464496 36.7039489746 28.1826046014
H 16.665582605 49.8816701982 24.2434140096
H 10.9350459394 36.703611137 32.2869742257
H 6.9956141213 35.0776140201 19.1091266213
H 10.2519856558 51.1611194759 19.1092127253
H 6.9957388566 51.1609675616 32.6341515233
H 10.9349734129 49.5348882111 19.4562569051
H 6.312734183 36.703937222 19.4559971858
H 10.2521152999 36.3567935782 33.91329166
H 6.3127370358 49.5346794863 32.2872343659
H 15.3865749512 35.0776614892 27.4996884189
H 1.861237114 35.0774420053 24.2433313345
H 2.2083142851 49.5346892347 28.1827316204
H 15.0392886207 49.5347451069 23.5604268355
H 0.5820423675 44.747335741 32.6340801488
H 2.2085733387 40.8081871438 19.4559899659
H 16.6656859912 44.7474596001 19.1090917741
H 15.0391353887 40.8081016332 32.2872123337
H 6.7624523479 36.1235244206 26.4537063507
H 9.2059416304 50.1147780311 27.7327007789
H 10.4852889845 36.1236651343 25.2894595425
H 6.7625908504 50.1149910333 25.2894108901
H 10.4851018676 42.5371587353 18.8759389281
H 9.2058826812 44.9805514582 32.8674475527
H 6.762567873 43.7013260074 18.8758314784
H 8.0417709121 41.2579047602 32.8671829282
H 1.628123779 44.9807193128 25.2894892775
H 15.6192907888 43.7012625704 27.7327659786
H 1.6282372585 41.2579255057 26.4536653736
H 15.6197188491 42.5371718573 24.0101954396
H 15.3865310938 44.7474392237 17.8298559816
H 0.582223765 41.4910282713 19.1090891835
H 1.8613189612 44.7474262672 33.9132056527
H 16.6654324776 41.4910620975 32.634253571
H 1.8613144975 51.1609341666 27.4997387235
H 0.5821707594 36.3567258672 24.2431805723
H 16.6657690561 36.3568657495 27.4995490299
H 15.3865241706 51.1609544878 24.2434147823
H 10.2520341046 35.0774362377 32.6342805361
H 6.9957328924 36.3566504154 17.8298089126
H 10.252023618 49.881970698 17.8299989339
H 6.9958096032 49.8818841318 33.913424864
H 6.6716332244 66.407529627 12.5704588449
H 10.5757207695 54.3262143537 12.5702727767
H 10.5757349505 66.4076807272 4.6773199978
H 6.6716827702 54.3264487983 4.6774042977
H 12.5704285441 58.4150041306 14.6645768637
H 12.5704280543 62.3190268415 2.5833747457
H 4.6773644313 62.3190445618 14.6644755059
H 4.677381065 58.4149588761 2.5831732546
H 14.6643990193 64.3134500291 6.6716451805
H 2.5830551251 64.3133684717 10.575859986
H 14.6645185562 56.4202507358 10.5756444587
H 2.5833669359 56.4203926119 6.6716109852
H 14.6644841091 58.4144988868 12.5703999371
H 2.58312572 62.3187440413 12.5702354734
H 14.6645040888 62.3188993741 4.6771836754
H 2.583445513 58.415060334 4.6772747192
H 6.6718249464 64.3136196913 14.6646014935
H 10.5759346168 64.3135204584 2.5834231048
H 10.5760136975 56.4203850816 14.6645750458
H 6.6718499625 56.4204449069 2.5831740722
H 12.5703793399 66.4076678535 6.6717126328
H 12.5702881202 54.3262568038 10.5758204336
H 4.6771795808 66.407537078 10.5758642496
H 4.6772346631 54.3263488927 6.6719715864
H 15.2956846672 57.7837662277 3.9465490816
H 1.9521799069 62.9502410495 3.9464576619
H 1.9518668266 57.7836445004 13.3011759897
H 15.2955496867 62.9500200927 13.3010298499
H 3.9465435071 67.0385824345 6.0406962422
H 3.9464554507 53.6950559214 11.2070529207
H 13.3010771569 53.6951103689 6.0406242572
H 13.3012031617 67.0388654451 11.207126282
H 6.0407660333 55.6896934565 15.2954323886
H 11.2071994261 55.6895916019 1.9519793127
H 6.040636196 65.0442535953 1.9521291745
H 11.2071742513 65.0443177808 15.2958314693
H 6.0405525067 67.038759251 3.9466261685
H 11.2071294591 53.6951872764 3.9465632799
H 6.0406738409 53.6950044301 13.3011231738
H 11.2070393329 67.0385790022 13.3010958672
H 15.2955404971 55.6896863194 6.0405267766
H 1.9520876248 55.6896764192 11.2069213794
H 1.9518917254 65.044206133 6.0406649514
H 15.2955496936 65.0442130045 11.2070640213
H 3.9466374519 57.783801965 15.295449481
H 3.9465518585 62.9502688839 1.9518222827
H 13.3011307455 57.7838169118 1.9520683626
H 13.3012327657 62.9502737236 15.2957290042
H 6.4156690982 54.054136581 10.8323577008
H 10.4852318325 67.3624531944 9.2059314784
H 10.8322379156 54.0543091822 6.4154780903
H 6.4155201919 66.6797386306 6.4154350124
H 9.2059190083 58.5056519637 1.6281910313
H 10.83210229 62.5754501877 14.936746853
H 8.0417631231 62.2282302884 1.6282438989
H 6.4155040032 58.15855097 14.9364630455
H 1.6282175824 60.9492041003 6.7626364774
H 14.9363426738 62.575183214 10.8322439523
H 1.6280114517 59.78495347 10.4850079125
H 14.9367233168 58.1586300542 6.4154148844
H 2.3111357829 58.1588439464 10.8323177862
H 15.6192622024 62.2282082907 9.2059591851
H 2.311144217 62.575477922 6.4155560637
H 15.6197227505 58.5056967698 8.0416638005
H 6.4154665171 62.5752323596 2.311167191
H 10.4851448248 60.949157942 15.6196679339
H 10.8321745406 58.1586109782 2.3111935489
H 6.7626004539 59.7847937839 15.6194671707
H 9.205993715 53.3713448924 6.7626688203
H 10.8321720362 66.6795439868 10.8322250108
H 8.041824863 53.3710744726 10.4850315833
H 8.0417525675 67.3627862371 6.7625115282
H 15.0394141977 62.6781212649 2.2083957978
H 1.8612767078 58.738830764 0.5820763696
H 2.2082801036 62.678038438 15.039198836
H 15.3862347059 58.738869523 16.6657338294
H 0.5820670283 67.1294898351 10.2520325212
H 2.2085227753 53.9513178187 6.3126363368
H 15.0395464496 53.9516489746 10.9349046049
H 16.665582605 67.1293701982 6.9957140096
H 10.9350459394 53.951311137 15.0392742257
H 6.9956141213 52.3253140201 1.8614266213
H 10.2519856558 68.4088194759 1.8615127253
H 6.9957388566 68.408667565 15.3864515233
H 10.9349734129 66.7825882111 2.2085569051
H 6.312734183 53.9516372186 2.2082971858
H 10.2521152999 53.6044935782 16.66559166
H 6.3127370358 66.7823794863 15.0395343659
H 15.3865749512 52.3253614857 10.2519884189
H 1.861237114 52.3251420019 6.9956313345
H 2.2083142851 66.7823892347 10.9350316204
H 15.0392886207 66.7824451069 6.3127268355
H 0.5820423675 61.995035741 15.3863801523
H 2.2085733387 58.0558871404 2.2082899693
H 16.6656859912 61.9951596001 1.8613917741
H 15.0391353887 58.0558016332 15.0395123337
H 6.7624523479 53.3712244206 9.2060063507
H 9.2059416304 67.3624780276 10.4850007789
H 10.4852889845 53.3713651343 8.0417595425
H 6.7625908504 67.3626910333 8.0417108901
H 10.4851018676 59.7848587353 1.6282389247
H 9.2058826812 62.2282514582 15.6197475527
H 6.762567873 60.9490260074 1.6281314784
H 8.0417709121 58.5056047602 15.6194829282
H 1.628123779 62.2284193128 8.0417892775
H 15.6192907888 60.9489625738 10.4850659786
H 1.6282372585 58.5056255057 9.2059653736
H 15.6197188491 59.7848718573 6.762495443
H 15.3865310938 61.9951392237 0.5821559816
H 0.582223765 58.7387282678 1.8613891835
H 1.8613189612 61.9951262672 16.6655056527
H 16.6654324776 58.7387620975 15.386553571
H 1.8613144975 68.4086341666 10.2520387235
H 0.5821707594 53.6044258672 6.9954805723
H 16.6657690561 53.6045657495 10.2518490299
H 15.3865241706 68.4086544878 6.9957147823
H 10.2520341046 52.3251362377 15.3865805361
H 6.9957328924 53.6043504154 0.5821089126
H 10.252023618 67.129670698 0.5822989374
H 6.9958096032 67.1295841352 16.665724864
H 6.6716332244 66.407529627 29.8181588449
H 10.5757207695 54.3262143537 29.8179727767
H 10.5757349505 66.4076807272 21.9250199978
H 6.6716827702 54.3264487983 21.9251043011
H 12.5704285441 58.4150041306 31.9122768603
H 12.5704280543 62.3190268415 19.8310747457
H 4.6773644313 62.3190445618 31.9121755059
H 4.677381065 58.4149588761 19.8308732546
H 14.6643990193 64.3134500291 23.9193451771
H 2.5830551251 64.3133684717 27.823559986
H 14.6645185562 56.4202507358 27.8233444587
H 2.5833669359 56.4203926119 23.9193109818
H 14.6644841091 58.4144988868 29.8180999371
H 2.58312572 62.3187440413 29.8179354699
H 14.6645040888 62.3188993741 21.9248836754
H 2.583445513 58.415060334 21.9249747192
H 6.6718249464 64.3136196913 31.9123014935
H 10.5759346168 64.3135204584 19.8311231048
H 10.5760136975 56.4203850816 31.9122750424
H 6.6718499625 56.4204449069 19.8308740687
H 12.5703793399 66.4076678535 23.9194126328
H 12.5702881202 54.3262568038 27.8235204336
H 4.6771795808 66.407537078 27.8235642496
H 4.6772346631 54.3263488927 23.9196715864
H 15.2956846672 57.7837662277 21.1942490816
H 1.9521799069 62.9502410495 21.1941576619
H 1.9518668266 57.7836445004 30.5488759897
H 15.2955496867 62.9500200927 30.5487298499
H 3.9465435071 67.0385824345 23.2883962456
H 3.9464554507 53.6950559214 28.4547529207
H 13.3010771569 53.6951103689 23.2883242572
H 13.3012031617 67.0388654451 28.454826282
H 6.0407660333 55.6896934565 32.5431323886
H 11.2071994261 55.6895916019 19.1996793127
H 6.040636196 65.0442535953 19.1998291745
H 11.2071742513 65.0443177808 32.5435314693
H 6.0405525067 67.038759251 21.1943261719
H 11.2071294591 53.6951872764 21.1942632764
H 6.0406738409 53.6950044301 30.5488231738
H 11.2070393329 67.0385790022 30.5487958638
H 15.2955404971 55.6896863194 23.2882267766
H 1.9520876248 55.6896764192 28.4546213828
H 1.9518917254 65.044206133 23.2883649549
H 15.2955496936 65.0442130045 28.4547640213
H 3.9466374519 57.783801965 32.5431494776
H 3.9465518585 62.9502688839 19.1995222827
H 13.3011307455 57.7838169118 19.1997683591
H 13.3012327657 62.9502737236 32.5434290042
H 6.4156690982 54.054136581 28.0800576974
H 10.4852318325 67.3624531944 26.4536314784
H 10.8322379156 54.0543091822 23.6631780903
H 6.4155201919 66.6797386306 23.6631350124
H 9.2059190083 58.5056519637 18.8758910313
H 10.83210229 62.5754501877 32.184446853
H 8.0417631231 62.2282302884 18.8759438989
H 6.4155040032 58.15855097 32.1841630455
H 1.6282175824 60.9492041003 24.0103364774
H 14.9363426738 62.575183214 28.0799439523
H 1.6280114517 59.78495347 27.7327079091
H 14.9367233168 58.1586300542 23.6631148878
H 2.3111357829 58.1588439464 28.0800177862
H 15.6192622024 62.2282082907 26.4536591851
H 2.311144217 62.575477922 23.6632560672
H 15.6197227505 58.5056967698 25.2893638005
H 6.4154665171 62.5752323596 19.558867191
H 10.4851448248 60.949157942 32.8673679339
H 10.8321745406 58.1586109782 19.5588935455
H 6.7626004539 59.7847937839 32.8671671707
H 9.205993715 53.3713448924 24.0103688203
H 10.8321720362 66.6795439868 28.0799250108
H 8.041824863 53.3710744726 27.7327315833
H 8.0417525675 67.3627862371 24.0102115282
H 15.0394141977 62.6781212649 19.4560957978
H 1.8612767078 58.738830764 17.8297763696
H 2.2082801036 62.678038438 32.286898836
H 15.3862347059 58.738869523 33.9134338294
H 0.5820670283 67.1294898351 27.4997325212
H 2.2085227753 53.9513178187 23.5603363368
H 15.0395464496 53.9516489746 28.1826046014
H 16.665582605 67.1293701982 24.2434140096
H 10.9350459394 53.951311137 32.2869742257
H 6.9956141213 52.3253140201 19.1091266213
H 10.2519856558 68.4088194759 19.1092127253
H 6.9957388566 68.408667565 32.6341515233
H 10.9349734129 66.7825882111 19.4562569051
H 6.312734183 53.9516372186 19.4559971858
H 10.2521152999 53.6044935782 33.91329166
H 6.3127370358 66.7823794863 32.2872343659
H 15.3865749512 52.3253614857 27.4996884189
H 1.861237114 52.3251420019 24.2433313345
H 2.2083142851 66.7823892347 28.1827316204
H 15.0392886207 66.7824451069 23.5604268355
H 0.5820423675 61.995035741 32.6340801488
H 2.2085733387 58.0558871404 19.4559899659
H 16.6656859912 61.9951596001 19.1090917741
H 15.0391353887 58.0558016332 32.2872123337
H 6.7624523479 53.3712244206 26.4537063507
H 9.2059416304 67.3624780276 27.7327007789
H 10.4852889845 53.3713651343 25.2894595425
H 6.7625908504 67.3626910333 25.2894108901
H 10.4851018676 59.7848587353 18.8759389281
H 9.2058826812 62.2282514582 32.8674475527
H 6.762567873 60.9490260074 18.8758314784
H 8.0417709121 58.5056047602 32.8671829282
H 1.628123779 62.2284193128 25.2894892775
H 15.6192907888 60.9489625738 27.7327659786
H 1.6282372585 58.5056255057 26.4536653736
H 15.6197188491 59.7848718573 24.0101954396
H 15.3865310938 61.9951392237 17.8298559816
H 0.582223765 58.7387282678 19.1090891835
H 1.8613189612 61.9951262672 33.9132056527
H 16.6654324776 58.7387620975 32.634253571
H 1.8613144975 68.4086341666 27.4997387235
H 0.5821707594 53.6044258672 24.2431805723
H 16.6657690561 53.6045657495 27.4995490299
H 15.3865241706 68.4086544878 24.2434147823
H 10.2520341046 52.3251362377 32.6342805361
H 6.9957328924 53.6043504154 17.8298089126
H 10.252023618 67.129670698 17.8299989339
H 6.9958096032 67.1295841352 33.913424864
H 23.9193332244 49.159829627 12.5704588449
H 27.8234207695 37.0785143537 12.5702727767
H 27.8234349505 49.1599807272 4.6773199978
H 23.9193827667 37.0787487983 4.6774042977
H 29.8181285441 41.1673041306 14.6645768637
H 29.8181280543 45.0713268415 2.5833747457
H 21.9250644313 45.0713445618 14.6644755059
H 21.925081065 41.1672588726 2.5831732546
H 31.9120990193 47.0657500291 6.6716451805
H 19.8307551286 47.0656684717 10.575859986
H 31.9122185562 39.1725507358 10.5756444587
H 19.8310669359 39.1726926119 6.6716109852
H 31.9121841091 41.1667988868 12.5703999371
H 19.8308257234 45.0710440413 12.5702354734
H 31.9122040888 45.0711993741 4.6771836754
H 19.8311455165 41.1673603374 4.6772747192
H 23.9195249464 47.0659196913 14.6646014935
H 27.8236346202 47.0658204584 2.5834231048
H 27.8237136975 39.1726850816 14.6645750458
H 23.9195499625 39.1727449069 2.5831740722
H 29.8180793433 49.1599678535 6.6717126328
H 29.8179881237 37.0785568072 10.5758204336
H 21.9248795808 49.159837078 10.5758642496
H 21.9249346631 37.0786488927 6.6719715864
H 32.5433846672 40.5360662277 3.9465490816
H 19.1998799069 45.7025410495 3.9464576619
H 19.1995668232 40.5359445004 13.3011759897
H 32.5432496867 45.7023200927 13.3010298499
H 21.1942435071 49.7908824345 6.0406962422
H 21.1941554507 36.4473559214 11.2070529207
H 30.5487771569 36.4474103689 6.0406242572
H 30.5489031617 49.7911654451 11.207126282
H 23.2884660333 38.4419934565 15.2954323886
H 28.4548994261 38.4418916019 1.9519793127
H 23.288336196 47.7965535953 1.9521291745
H 28.4548742513 47.7966177808 15.2958314693
H 23.2882525033 49.791059251 3.9466261685
H 28.4548294591 36.4474872764 3.9465632799
H 23.2883738409 36.4473044335 13.3011231738
H 28.4547393295 49.7908790022 13.3010958672
H 32.5432404971 38.4419863194 6.0405267766
H 19.1997876248 38.4419764192 11.2069213794
H 19.1995917254 47.796506133 6.0406649514
H 32.5432496936 47.7965130045 11.2070640213
H 21.1943374519 40.5361019684 15.295449481
H 21.1942518585 45.7025688839 1.9518222827
H 30.5488307455 40.5361169153 1.9520683626
H 30.5489327691 45.702573727 15.2957290042
H 23.6633690982 36.806436581 10.8323577008
H 27.7329318325 50.1147531944 9.2059314784
H 28.0799379156 36.8066091822 6.4154780903
H 23.6632201919 49.4320386271 6.4154350124
H 26.4536190083 41.2579519637 1.6281910313
H 28.07980229 45.3277501912 14.936746853
H 25.2894631231 44.9805302884 1.6282438989
H 23.6632040032 40.91085097 14.9364630455
H 18.8759175824 43.7015041003 6.7626364774
H 32.1840426738 45.327483214 10.8322439523
H 18.8757114517 42.5372534665 10.4850079125
H 32.1844233168 40.9109300542 6.4154148844
H 19.5588357795 40.9111439429 10.8323177862
H 32.8669622024 44.9805082907 9.2059591851
H 19.558844217 45.3277779255 6.4155560637
H 32.8674227505 41.2579967698 8.0416638005
H 23.6631665171 45.3275323596 2.311167191
H 27.7328448213 43.701457942 15.6196679339
H 28.0798745406 40.9109109782 2.3111935489
H 24.0103004573 42.5370937839 15.6194671707
H 26.453693715 36.1236448889 6.7626688203
H 28.0798720397 49.4318439868 10.8322250108
H 25.2895248664 36.1233744726 10.4850315833
H 25.2894525675 50.1150862371 6.7625115282
H 32.2871141977 45.4304212649 2.2083957978
H 19.1089767078 41.491130764 0.5820763696
H 19.4559801002 45.430338438 15.039198836
H 32.6339347059 41.491169523 16.6657338294
H 17.8297670283 49.8817898351 10.2520325212
H 19.4562227753 36.7036178187 6.3126363368
H 32.2872464496 36.7039489746 10.9349046049
H 33.913282605 49.8816701982 6.9957140096
H 28.182745936 36.703611137 15.0392742257
H 24.2433141213 35.0776140201 1.8614266213
H 27.4996856558 51.1611194759 1.8615127253
H 24.2434388566 51.1609675616 15.3864515233
H 28.1826734129 49.5348882111 2.2085569051
H 23.560434183 36.703937222 2.2082971858
H 27.4998152999 36.3567935782 16.66559166
H 23.5604370392 49.5346794863 15.0395343659
H 32.6342749512 35.0776614892 10.2519884189
H 19.108937114 35.0774420053 6.9956313345
H 19.4560142886 49.5346892347 10.9350316204
H 32.2869886241 49.5347451069 6.3127268355
H 17.8297423641 44.747335741 15.3863801523
H 19.4562733387 40.8081871438 2.2082899693
H 33.9133859946 44.7474596001 1.8613917741
H 32.2868353887 40.8081016332 15.0395123337
H 24.0101523479 36.1235244206 9.2060063507
H 26.4536416269 50.1147780311 10.4850007789
H 27.7329889879 36.1236651343 8.0417595425
H 24.0102908504 50.1149910333 8.0417108901
H 27.7328018676 42.5371587353 1.6282389247
H 26.4535826812 44.9805514582 15.6197475527
H 24.010267873 43.7013260074 1.6281314784
H 25.2894709121 41.2579047602 15.6194829282
H 18.875823779 44.9807193128 8.0417892775
H 32.8669907888 43.7012625704 10.4850659786
H 18.8759372585 41.2579255057 9.2059653736
H 32.8674188456 42.5371718573 6.762495443
H 32.6342310938 44.7474392237 0.5821559816
H 17.829923765 41.4910282713 1.8613891835
H 19.1090189612 44.7474262672 16.6655056527
H 33.9131324776 41.4910620975 15.386553571
H 19.1090144975 51.1609341666 10.2520387235
H 17.8298707594 36.3567258672 6.9954805723
H 33.9134690561 36.3568657495 10.2518490299
H 32.6342241706 51.1609544878 6.9957147823
H 27.4997341046 35.0774362377 15.3865805361
H 24.2434328924 36.3566504154 0.5821089126
H 27.499723618 49.881970698 0.5822989374
H 24.2435096032 49.8818841318 16.665724864
H 23.9193332244 49.159829627 29.8181588449
H 27.8234207695 37.0785143537 29.8179727767
H 27.8234349505 49.1599807272 21.9250199978
H 23.9193827667 37.0787487983 21.9251043011
H 29.8181285441 41.1673041306 31.9122768603
H 29.8181280543 45.0713268415 19.8310747457
H 21.9250644313 45.0713445618 31.9121755059
H 21.925081065 41.1672588726 19.8308732546
H 31.9120990193 47.0657500291 23.9193451771
H 19.8307551286 47.0656684717 27.823559986
H 31.9122185562 39.1725507358 27.8233444587
H 19.8310669359 39.1726926119 23.9193109818
H 31.9121841091 41.1667988868 29.8180999371
H 19.8308257234 45.0710440413 29.8179354699
H 31.9122040888 45.0711993741 21.9248836754
H 19.8311455165 41.1673603374 21.9249747192
H 23.9195249464 47.0659196913 31.9123014935
H 27.8236346202 47.0658204584 19.8311231048
H 27.8237136975 39.1726850816 31.9122750424
H 23.9195499625 39.1727449069 19.8308740687
H 29.8180793433 49.1599678535 23.9194126328
H 29.8179881237 37.0785568072 27.8235204336
H 21.9248795808 49.159837078 27.8235642496
H 21.9249346631 37.0786488927 23.9196715864
H 32.5433846672 40.5360662277 21.1942490816
H 19.1998799069 45.7025410495 21.1941576619
H 19.1995668232 40.5359445004 30.5488759897
H 32.5432496867 45.7023200927 30.5487298499
H 21.1942435071 49.7908824345 23.2883962456
H 21.1941554507 36.4473559214 28.4547529207
H 30.5487771569 36.4474103689 23.2883242572
H 30.5489031617 49.7911654451 28.454826282
H 23.2884660333 38.4419934565 32.5431323886
H 28.4548994261 38.4418916019 19.1996793127
H 23.288336196 47.7965535953 19.1998291745
H 28.4548742513 47.7966177808 32.5435314693
H 23.2882525033 49.791059251 21.1943261719
H 28.4548294591 36.4474872764 21.1942632764
H 23.2883738409 36.4473044335 30.5488231738
H 28.4547393295 49.7908790022 30.5487958638
H 32.5432404971 38.4419863194 23.2882267766
H 19.1997876248 38.4419764192 28.4546213828
H 19.1995917254 47.796506133 23.2883649549
H 32.5432496936 47.7965130045 28.4547640213
H 21.1943374519 40.5361019684 32.5431494776
H 21.1942518585 45.7025688839 19.1995222827
H 30.5488307455 40.5361169153 19.1997683591
H 30.5489327691 45.702573727 32.5434290042
H 23.6633690982 36.806436581 28.0800576974
H 27.7329318325 50.1147531944 26.4536314784
H 28.0799379156 36.8066091822 23.6631780903
H 23.6632201919 49.4320386271 23.6631350124
H 26.4536190083 41.2579519637 18.8758910313
H 28.07980229 45.3277501912 32.184446853
H 25.2894631231 44.9805302884 18.8759438989
H 23.6632040032 40.91085097 32.1841630455
H 18.8759175824 43.7015041003 24.0103364774
H 32.1840426738 45.327483214 28.0799439523
H 18.8757114517 42.5372534665 27.7327079091
H 32.1844233168 40.9109300542 23.6631148878
H 19.5588357795 40.9111439429 28.0800177862
H 32.8669622024 44.9805082907 26.4536591851
H 19.558844217 45.3277779255 23.6632560672
H 32.8674227505 41.2579967698 25.2893638005
H 23.6631665171 45.3275323596 19.558867191
H 27.7328448213 43.701457942 32.8673679339
H 28.0798745406 40.9109109782 19.5588935455
H 24.0103004573 42.5370937839 32.8671671707
H 26.453693715 36.1236448889 24.0103688203
H 28.0798720397 49.4318439868 28.0799250108
H 25.2895248664 36.1233744726 27.7327315833
H 25.2894525675 50.1150862371 24.0102115282
H 32.2871141977 45.4304212649 19.4560957978
H 19.1089767078 41.491130764 17.8297763696
H 19.4559801002 45.430338438 32.286898836
H 32.6339347059 41.491169523 33.9134338294
H 17.8297670283 49.8817898351 27.4997325212
H 19.4562227753 36.7036178187 23.5603363368
H 32.2872464496 36.7039489746 28.1826046014
H 33.913282605 49.8816701982 24.2434140096
H 28.182745936 36.703611137 32.2869742257
H 24.2433141213 35.0776140201 19.1091266213
H 27.4996856558 51.1611194759 19.1092127253
H 24.2434388566 51.1609675616 32.6341515233
H 28.1826734129 49.5348882111 19.4562569051
H 23.560434183 36.703937222 19.4559971858
H 27.4998152999 36.3567935782 33.91329166
H 23.5604370392 49.5346794863 32.2872343659
H 32.6342749512 35.0776614892 27.4996884189
H 19.108937114 35.0774420053 24.2433313345
H 19.4560142886 49.5346892347 28.1827316204
H 32.2869886241 49.5347451069 23.5604268355
H 17.8297423641 44.747335741 32.6340801488
H 19.4562733387 40.8081871438 19.4559899659
H 33.9133859946 44.7474596001 19.1090917741
H 32.2868353887 40.8081016332 32.2872123337
H 24.0101523479 36.1235244206 26.4537063507
H 26.4536416269 50.1147780311 27.7327007789
H 27.7329889879 36.1236651343 25.2894595425
H 24.0102908504 50.1149910333 25.2894108901
H 27.7328018676 42.5371587353 18.8759389281
H 26.4535826812 44.9805514582 32.8674475527
H 24.010267873 43.7013260074 18.8758314784
H 25.2894709121 41.2579047602 32.8671829282
H 18.875823779 44.9807193128 25.2894892775
H 32.8669907888 43.7012625704 27.7327659786
H 18.8759372585 41.2579255057 26.4536653736
H 32.8674188456 42.5371718573 24.0101954396
H 32.6342310938 44.7474392237 17.8298559816
H 17.829923765 41.4910282713 19.1090891835
H 19.1090189612 44.7474262672 33.9132056527
H 33.9131324776 41.4910620975 32.634253571
H 19.1090144975 51.1609341666 27.4997387235
H 17.8298707594 36.3567258672 24.2431805723
H 33.9134690561 36.3568657495 27.4995490299
H 32.6342241706 51.1609544878 24.2434147823
H 27.4997341046 35.0774362377 32.6342805361
H 24.2434328924 36.3566504154 17.8298089126
H 27.499723618 49.881970698 17.8299989339
H 24.2435096032 49.8818841318 33.913424864
H 23.9193332244 66.407529627 12.5704588449
H 27.8234207695 54.3262143537 12.5702727767
H 27.8234349505 66.4076807272 4.6773199978
H 23.9193827667 54.3264487983 4.6774042977
H 29.8181285441 58.4150041306 14.6645768637
H 29.8181280543 62.3190268415 2.5833747457
H 21.9250644313 62.3190445618 14.6644755059
H 21.925081065 58.4149588761 2.5831732546
H 31.9120990193 64.3134500291 6.6716451805
H 19.8307551286 64.3133684717 10.575859986
H 31.9122185562 56.4202507358 10.5756444587
H 19.8310669359 56.4203926119 6.6716109852
H 31.9121841091 58.4144988868 12.5703999371
H 19.8308257234 62.3187440413 12.5702354734
H 31.9122040888 62.3188993741 4.6771836754
H 19.8311455165 58.415060334 4.6772747192
H 23.9195249464 64.3136196913 14.6646014935
H 27.8236346202 64.3135204584 2.5834231048
H 27.8237136975 56.4203850816 14.6645750458
H 23.9195499625 56.4204449069 2.5831740722
H 29.8180793433 66.4076678535 6.6717126328
H 29.8179881237 54.3262568038 10.5758204336
H 21.9248795808 66.407537078 10.5758642496
H 21.9249346631 54.3263488927 6.6719715864
H 32.5433846672 57.7837662277 3.9465490816
H 19.1998799069 62.9502410495 3.9464576619
H 19.1995668232 57.7836445004 13.3011759897
H 32.5432496867 62.9500200927 13.3010298499
H 21.1942435071 67.0385824345 6.0406962422
H 21.1941554507 53.6950559214 11.2070529207
H 30.5487771569 53.6951103689 6.0406242572
H 30.5489031617 67.0388654451 11.207126282
H 23.2884660333 55.6896934565 15.2954323886
H 28.4548994261 55.6895916019 1.9519793127
H 23.288336196 65.0442535953 1.9521291745
H 28.4548742513 65.0443177808 15.2958314693
H 23.2882525033 67.038759251 3.9466261685
H 28.4548294591 53.6951872764 3.9465632799
H 23.2883738409 53.6950044301 13.3011231738
H 28.4547393295 67.0385790022 13.3010958672
H 32.5432404971 55.6896863194 6.0405267766
H 19.1997876248 55.6896764192 11.2069213794
H 19.1995917254 65.044206133 6.0406649514
H 32.5432496936 65.0442130045 11.2070640213
H 21.1943374519 57.783801965 15.295449481
H 21.1942518585 62.9502688839 1.9518222827
H 30.5488307455 57.7838169118 1.9520683626
H 30.5489327691 62.9502737236 15.2957290042
H 23.6633690982 54.054136581 10.8323577008
H 27.7329318325 67.3624531944 9.2059314784
H 28.0799379156 54.0543091822 6.4154780903
H 23.6632201919 66.6797386306 6.4154350124
H 26.4536190083 58.5056519637 1.6281910313
H 28.07980229 62.5754501877 14.936746853
H 25.2894631231 62.2282302884 1.6282438989
H 23.6632040032 58.15855097 14.9364630455
H 18.8759175824 60.9492041003 6.7626364774
H 32.1840426738 62.575183214 10.8322439523
H 18.8757114517 59.78495347 10.4850079125
H 32.1844233168 58.1586300542 6.4154148844
H 19.5588357795 58.1588439464 10.8323177862
H 32.8669622024 62.2282082907 9.2059591851
H 19.558844217 62.575477922 6.4155560637
H 32.8674227505 58.5056967698 8.0416638005
H 23.6631665171 62.5752323596 2.311167191
H 27.7328448213 60.949157942 15.6196679339
H 28.0798745406 58.1586109782 2.3111935489
H 24.0103004573 59.7847937839 15.6194671707
H 26.453693715 53.3713448924 6.7626688203
H 28.0798720397 66.6795439868 10.8322250108
H 25.2895248664 53.3710744726 10.4850315833
H 25.2894525675 67.3627862371 6.7625115282
H 32.2871141977 62.6781212649 2.2083957978
H 19.1089767078 58.738830764 0.5820763696
H 19.4559801002 62.678038438 15.039198836
H 32.6339347059 58.738869523 16.6657338294
H 17.8297670283 67.1294898351 10.2520325212
H 19.4562227753 53.9513178187 6.3126363368
H 32.2872464496 53.9516489746 10.9349046049
H 33.913282605 67.1293701982 6.9957140096
H 28.182745936 53.951311137 15.0392742257
H 24.2433141213 52.3253140201 1.8614266213
H 27.4996856558 68.4088194759 1.8615127253
H 24.2434388566 68.408667565 15.3864515233
H 28.1826734129 66.7825882111 2.2085569051
H 23.560434183 53.9516372186 2.2082971858
H 27.4998152999 53.6044935782 16.66559166
H 23.5604370392 66.7823794863 15.0395343659
H 32.6342749512 52.3253614857 10.2519884189
H 19.108937114 52.3251420019 6.9956313345
H 19.4560142886 66.7823892347 10.9350316204
H 32.2869886241 66.7824451069 6.3127268355
H 17.8297423641 61.995035741 15.3863801523
H 19.4562733387 58.0558871404 2.2082899693
H 33.9133859946 61.9951596001 1.8613917741
H 32.2868353887 58.0558016332 15.0395123337
H 24.0101523479 53.3712244206 9.2060063507
H 26.4536416269 67.3624780276 10.4850007789
H 27.7329889879 53.3713651343 8.0417595425
H 24.0102908504 67.3626910333 8.0417108901
H 27.7328018676 59.7848587353 1.6282389247
H 26.4535826812 62.2282514582 15.6197475527
H 24.010267873 60.9490260074 1.6281314784
H 25.2894709121 58.5056047602 15.6194829282
H 18.875823779 62.2284193128 8.0417892775
H 32.8669907888 60.9489625738 10.4850659786
H 18.8759372585 58.5056255057 9.2059653736
H 32.8674188456 59.7848718573 6.762495443
H 32.6342310938 61.9951392237 0.5821559816
H 17.829923765 58.7387282678 1.8613891835
H 19.1090189612 61.9951262672 16.6655056527
H 33.9131324776 58.7387620975 15.386553571
H 19.1090144975 68.4086341666 10.2520387235
H 17.8298707594 53.6044258672 6.9954805723
H 33.9134690561 53.6045657495 10.2518490299
H 32.6342241706 68.4086544878 6.9957147823
H 27.4997341046 52.3251362377 15.3865805361
H 24.2434328924 53.6043504154 0.5821089126
H 27.499723618 67.129670698 0.5822989374
H 24.2435096032 67.1295841352 16.665724864
H 23.9193332244 66.407529627 29.8181588449
H 27.8234207695 54.3262143537 29.8179727767
H 27.8234349505 66.4076807272 21.9250199978
H 23.9193827667 54.3264487983 21.9251043011
H 29.8181285441 58.4150041306 31.9122768603
H 29.8181280543 62.3190268415 19.8310747457
H 21.9250644313 62.3190445618 31.9121755059
H 21.925081065 58.4149588761 19.8308732546
H 31.9120990193 64.3134500291 23.9193451771
H 19.8307551286 64.3133684717 27.823559986
H 31.9122185562 56.4202507358 27.8233444587
H 19.8310669359 56.4203926119 23.9193109818
H 31.9121841091 58.4144988868 29.8180999371
H 19.8308257234 62.3187440413 29.8179354699
H 31.9122040888 62.3188993741 21.9248836754
H 19.8311455165 58.415060334 21.9249747192
H 23.9195249464 64.3136196913 31.9123014935
H 27.8236346202 64.3135204584 19.8311231048
H 27.8237136975 56.4203850816 31.9122750424
H 23.9195499625 56.4204449069 19.8308740687
H 29.8180793433 66.4076678535 23.9194126328
H 29.8179881237 54.3262568038 27.8235204336
H 21.9248795808 66.407537078 27.8235642496
H 21.9249346631 54.3263488927 23.9196715864
H 32.5433846672 57.7837662277 21.1942490816
H 19.1998799069 62.9502410495 21.1941576619
H 19.1995668232 57.7836445004 30.5488759897
H 32.5432496867 62.9500200927 30.5487298499
H 21.1942435071 67.0385824345 23.2883962456
H 21.1941554507 53.6950559214 28.4547529207
H 30.5487771569 53.6951103689 23.2883242572
H 30.5489031617 67.0388654451 28.454826282
H 23.2884660333 55.6896934565 32.5431323886
H 28.4548994261 55.6895916019 19.1996793127
H 23.288336196 65.0442535953 19.1998291745
H 28.4548742513 65.0443177808 32.5435314693
H 23.2882525033 67.038759251 21.1943261719
H 28.4548294591 53.6951872764 21.1942632764
H 23.2883738409 53.6950044301 30.5488231738
H 28.4547393295 67.0385790022 30.5487958638
H 32.5432404971 55.6896863194 23.2882267766
H 19.1997876248 55.6896764192 28.4546213828
H 19.1995917254 65.044206133 23.2883649549
H 32.5432496936 65.0442130045 28.4547640213
H 21.1943374519 57.783801965 32.5431494776
H 21.1942518585 62.9502688839 19.1995222827
H 30.5488307455 57.7838169118 19.1997683591
H 30.5489327691 62.9502737236 32.5434290042
H 23.6633690982 54.054136581 28.0800576974
H 27.7329318325 67.3624531944 26.4536314784
H 28.0799379156 54.0543091822 23.6631780903
H 23.6632201919 66.6797386306 23.6631350124
H 26.4536190083 58.5056519637 18.8758910313
H 28.07980229 62.5754501877 32.184446853
H 25.2894631231 62.2282302884 18.8759438989
H 23.6632040032 58.15855097 32.1841630455
H 18.8759175824 60.9492041003 24.0103364774
H 32.1840426738 62.575183214 28.0799439523
H 18.8757114517 59.78495347 27.7327079091
H 32.1844233168 58.1586300542 23.6631148878
H 19.5588357795 58.1588439464 28.0800177862
H 32.8669622024 62.2282082907 26.4536591851
H 19.558844217 62.575477922 23.6632560672
H 32.8674227505 58.5056967698 25.2893638005
H 23.6631665171 62.5752323596 19.558867191
H 27.7328448213 60.949157942 32.8673679339
H 28.0798745406 58.1586109782 19.5588935455
H 24.0103004573 59.7847937839 32.8671671707
H 26.453693715 53.3713448924 24.0103688203
H 28.0798720397 66.6795439868 28.0799250108
H 25.2895248664 53.3710744726 27.7327315833
H 25.2894525675 67.3627862371 24.0102115282
H 32.2871141977 62.6781212649 19.4560957978
H 19.1089767078 58.738830764 17.8297763696
H 19.4559801002 62.678038438 32.286898836
H 32.6339347059 58.738869523 33.9134338294
H 17.8297670283 67.1294898351 27.4997325212
H 19.4562227753 53.9513178187 23.5603363368
H 32.2872464496 53.9516489746 28.1826046014
H 33.913282605 67.1293701982 24.2434140096
H 28.182745936 53.951311137 32.2869742257
H 24.2433141213 52.3253140201 19.1091266213
H 27.4996856558 68.4088194759 19.1092127253
H 24.2434388566 68.408667565 32.6341515233
H 28.1826734129 66.7825882111 19.4562569051
H 23.560434183 53.9516372186 19.4559971858
H 27.4998152999 53.6044935782 33.91329166
H 23.5604370392 66.7823794863 32.2872343659
H 32.6342749512 52.3253614857 27.4996884189
H 19.108937114 52.3251420019 24.2433313345
H 19.4560142886 66.7823892347 28.1827316204
H 32.2869886241 66.7824451069 23.5604268355
H 17.8297423641 61.995035741 32.6340801488
H 19.4562733387 58.0558871404 19.4559899659
H 33.9133859946 61.9951596001 19.1090917741
H 32.2868353887 58.0558016332 32.2872123337
H 24.0101523479 53.3712244206 26.4537063507
H 26.4536416269 67.3624780276 27.7327007789
H 27.7329889879 53.3713651343 25.2894595425
H 24.0102908504 67.3626910333 25.2894108901
H 27.7328018676 59.7848587353 18.8759389281
H 26.4535826812 62.2282514582 32.8674475527
H 24.010267873 60.9490260074 18.8758314784
H 25.2894709121 58.5056047602 32.8671829282
H 18.875823779 62.2284193128 25.2894892775
H 32.8669907888 60.9489625738 27.7327659786
H 18.8759372585 58.5056255057 26.4536653736
H 32.8674188456 59.7848718573 24.0101954396
H 32.6342310938 61.9951392237 17.8298559816
H 17.829923765 58.7387282678 19.1090891835
H 19.1090189612 61.9951262672 33.9132056527
H 33.9131324776 58.7387620975 32.634253571
H 19.1090144975 68.4086341666 27.4997387235
H 17.8298707594 53.6044258672 24.2431805723
H 33.9134690561 53.6045657495 27.4995490299
H 32.6342241706 68.4086544878 24.2434147823
H 27.4997341046 52.3251362377 32.6342805361
H 24.2434328924 53.6043504154 17.8298089126
H 27.499723618 67.129670698 17.8299989339
H 24.2435096032 67.1295841352 33.913424864
C 6.5036575671 34.615808667 10.7440318807
C 10.7439990929 51.6224738705 10.7439677986
C 10.744038804 34.6159870669 6.5036837008
C 6.5036289463 51.6226719466 6.5036861397
C 10.74402424 40.9991147122 0.1205611436
C 10.7439972439 45.2394828615 17.1273806381
C 6.5037191035 45.2394424536 0.1205345476
C 6.5036800133 40.9990293982 17.1271080244
C 0.1204916595 45.239484024 6.5036494193
C 17.1270004781 45.2393046479 10.7439990204
C 0.1204797896 40.9990418027 10.7439429068
C 17.1273768333 40.9991243157 6.5035795592
C 15.1275890349 43.2397962347 2.1202198705
C 2.1202474358 42.9988051508 2.1201122552
C 2.1201254083 43.2397171747 15.127461909
C 15.1274042051 42.9987333865 15.127587148
C 2.120141121 49.6228365445 8.7443966452
C 2.1201785657 36.6155266605 8.5032633057
C 15.1275932537 36.6156508508 8.7442691122
C 15.1274957628 49.6229013062 8.5033629732
C 8.7444019368 36.6154940658 15.127522138
C 8.5033814214 36.6156272042 2.1201932332
C 8.7443223421 49.6230196875 2.1203183894
C 8.5033962544 49.6229011199 15.127619177
C 6.3922740834 49.934671166 11.8414446655
C 10.8551832622 36.303638102 11.8413395787
C 10.8551965877 49.9348464096 5.4062710437
C 6.3923053638 36.3038588208 5.4063592933
C 11.8414538758 40.8878696999 15.4394297621
C 11.841441523 45.3507389917 1.8085202295
C 5.4063302481 45.3507369806 15.4393682361
C 5.4063159636 40.887824028 1.8082826493
C 15.4392810145 46.3367819598 6.392288637
C 1.8081881664 46.3366816127 10.8552516045
C 15.4393750903 39.9015136308 10.855127421
C 1.808525973 39.9017049665 6.3922555456
C 15.4393321505 40.8875385648 11.8413510691
C 1.8082092224 45.3505171241 11.8413360361
C 15.4393548208 45.3506530153 5.4061663846
C 1.8085546973 40.8879003387 5.4062009973
C 6.3924245351 46.3369068193 15.4394310591
C 10.8553206815 46.336862917 1.8085418857
C 10.8553638007 39.9016893193 15.4394308694
C 6.3924287021 39.9016870047 1.8082874408
C 11.8413873963 49.9348276475 6.392346848
C 11.8413311722 36.3036698516 10.8552333564
C 5.406168413 49.9346922565 10.8552859032
C 5.4061965233 36.3038000303 6.392507224
C 15.0162935834 41.310934311 3.2175792392
C 2.2315447259 44.9276797136 3.2174732935
C 2.2313507065 41.3108520808 14.0300811118
C 15.0161642291 44.9275178888 14.0300759444
C 3.2175306766 49.5115270465 6.8155437213
C 3.2175211248 36.7267836531 10.4321527533
C 14.0300768275 36.7268484113 6.8154641646
C 14.0301248382 49.5117071574 10.4322334759
C 6.8155915837 37.7129430811 15.0161212617
C 10.4322905244 37.7129712397 2.2314247164
C 6.8154869695 48.5255515066 2.231544957
C 10.4322703619 48.5255271494 15.0163659686
C 6.8154381861 49.5116780915 3.217666209
C 10.4322561498 36.7268840002 3.2175901535
C 6.8155662985 36.7267534282 14.0300709322
C 10.4322049448 49.5115483405 14.0301345452
C 15.0161900903 37.713004683 6.8154021108
C 2.2314608779 37.7129694528 10.4320822136
C 2.2313505133 48.5254365886 6.8155478194
C 15.0161764371 48.5255096878 10.4322134376
C 3.2175830302 41.310913631 15.0161165116
C 3.2176312755 44.9276801551 2.2312946308
C 14.0301254177 41.3109718868 2.2314791777
C 14.0301186394 44.9276413375 15.0162919725
C 6.9535851363 35.9890083907 10.2941685385
C 10.294158352 50.249251173 10.2941015553
C 10.2942094121 35.9891931411 6.9535832287
C 6.9535491266 50.2494722091 6.9535166733
C 10.2941215247 41.4489679576 1.4937631888
C 10.2940989613 44.7896296506 15.7541689377
C 6.9535665019 44.7895249432 1.4937394525
C 6.9535661363 41.4488976387 15.7539018605
C 1.4937162647 44.7896927461 6.9535949606
C 15.7537604052 44.7894625755 10.2941377169
C 1.4936826351 41.4490278037 10.2941237842
C 15.7541635874 41.4489833771 6.9534696043
C 15.5774896736 44.6130002944 1.6703597122
C 1.6703957979 41.6255701935 1.67029048
C 1.6702599688 44.612927823 15.577326669
C 15.5772292643 41.6255371159 15.5775307852
C 1.6702779754 50.0727483321 10.1175926433
C 1.6703427681 36.1656510517 7.130041843
C 15.5775565463 36.1658497521 10.1174766732
C 15.577398892 50.0727469454 7.1301586376
C 10.117614503 36.1656515277 15.5774314557
C 7.1301471333 36.1657751455 1.670327497
C 10.1175436564 50.0729345176 1.6704922849
C 7.1301936987 50.0727913065 15.5775098016
C 6.5036575671 34.615808667 27.9917318773
C 10.7439990929 51.6224738705 27.9916677986
C 10.744038804 34.6159870669 23.7513837008
C 6.5036289463 51.6226719466 23.7513861397
C 10.74402424 40.9991147122 17.368261147
C 10.7439972439 45.2394828615 34.3750806416
C 6.5037191035 45.2394424536 17.3682345476
C 6.5036800133 40.9990293982 34.3748080244
C 0.1204916595 45.239484024 23.7513494193
C 17.1270004781 45.2393046479 27.9916990204
C 0.1204797896 40.9990418027 27.9916429068
C 17.1273768333 40.9991243157 23.7512795558
C 15.1275890349 43.2397962347 19.3679198705
C 2.1202474358 42.9988051508 19.3678122552
C 2.1201254083 43.2397171747 32.375161909
C 15.1274042051 42.9987333865 32.375287148
C 2.120141121 49.6228365445 25.9920966452
C 2.1201785657 36.6155266605 25.7509633057
C 15.1275932537 36.6156508508 25.9919691122
C 15.1274957628 49.6229013062 25.7510629732
C 8.7444019368 36.6154940658 32.3752221414
C 8.5033814214 36.6156272042 19.3678932366
C 8.7443223421 49.6230196875 19.3680183894
C 8.5033962544 49.6229011199 32.375319177
C 6.3922740834 49.934671166 29.0891446655
C 10.8551832622 36.303638102 29.0890395753
C 10.8551965877 49.9348464096 22.6539710437
C 6.3923053638 36.3038588208 22.6540592933
C 11.8414538758 40.8878696999 32.6871297621
C 11.841441523 45.3507389917 19.0562202295
C 5.4063302481 45.3507369806 32.6870682361
C 5.4063159636 40.887824028 19.0559826493
C 15.4392810145 46.3367819598 23.639988637
C 1.8081881664 46.3366816127 28.102951601
C 15.4393750903 39.9015136308 28.102827421
C 1.808525973 39.9017049665 23.6399555456
C 15.4393321505 40.8875385648 29.0890510657
C 1.8082092224 45.3505171241 29.0890360361
C 15.4393548208 45.3506530153 22.6538663812
C 1.8085546973 40.8879003387 22.6539009939
C 6.3924245351 46.3369068193 32.6871310591
C 10.8553206815 46.336862917 19.0562418857
C 10.8553638007 39.9016893193 32.6871308694
C 6.3924287021 39.9016870047 19.0559874408
C 11.8413873963 49.9348276475 23.640046848
C 11.8413311722 36.3036698516 28.1029333564
C 5.406168413 49.9346922565 28.1029859032
C 5.4061965233 36.3038000303 23.640207224
C 15.0162935834 41.310934311 20.4652792357
C 2.2315447259 44.9276797136 20.4651732935
C 2.2313507065 41.3108520808 31.2777811118
C 15.0161642291 44.9275178888 31.2777759444
C 3.2175306766 49.5115270465 24.0632437213
C 3.2175211248 36.7267836531 27.6798527533
C 14.0300768275 36.7268484113 24.0631641646
C 14.0301248382 49.5117071574 27.6799334759
C 6.8155915837 37.7129430811 32.2638212617
C 10.4322905244 37.7129712397 19.4791247164
C 6.8154869695 48.5255515066 19.479244957
C 10.4322703619 48.5255271494 32.2640659686
C 6.8154381861 49.5116780915 20.4653662124
C 10.4322561498 36.7268840002 20.4652901535
C 6.8155662985 36.7267534282 31.2777709288
C 10.4322049448 49.5115483405 31.2778345452
C 15.0161900903 37.713004683 24.0631021108
C 2.2314608779 37.7129694528 27.6797822136
C 2.2313505133 48.5254365886 24.0632478194
C 15.0161764371 48.5255096878 27.6799134341
C 3.2175830302 41.310913631 32.2638165116
C 3.2176312755 44.9276801551 19.4789946308
C 14.0301254177 41.3109718868 19.4791791777
C 14.0301186394 44.9276413375 32.2639919725
C 6.9535851363 35.9890083907 27.541868542
C 10.294158352 50.249251173 27.5418015553
C 10.2942094121 35.9891931411 24.2012832253
C 6.9535491266 50.2494722091 24.2012166733
C 10.2941215247 41.4489679576 18.7414631888
C 10.2940989613 44.7896296506 33.0018689377
C 6.9535665019 44.7895249432 18.7414394525
C 6.9535661363 41.4488976387 33.0016018605
C 1.4937162647 44.7896927461 24.2012949606
C 15.7537604052 44.7894625755 27.5418377169
C 1.4936826351 41.4490278037 27.5418237842
C 15.7541635874 41.4489833771 24.2011696043
C 15.5774896736 44.6130002944 18.9180597088
C 1.6703957979 41.6255701935 18.91799048
C 1.6702599688 44.612927823 32.825026669
C 15.5772292643 41.6255371159 32.8252307886
C 1.6702779754 50.0727483321 27.3652926433
C 1.6703427681 36.1656510517 24.377741843
C 15.5775565463 36.1658497521 27.3651766732
C 15.577398892 50.0727469454 24.3778586376
C 10.117614503 36.1656515277 32.8251314591
C 7.1301471333 36.1657751455 18.9180274935
C 10.1175436564 50.0729345176 18.9181922884
C 7.1301936987 50.0727913065 32.8252098016
C 6.5036575671 51.863508667 10.7440318807
C 10.7439990929 68.8701738705 10.7439677986
C 10.744038804 51.8636870669 6.5036837008
C 6.5036289463 68.8703719466 6.5036861397
C 10.74402424 58.2468147122 0.1205611436
C 10.7439972439 62.4871828615 17.1273806381
C 6.5037191035 62.4871424536 0.1205345476
C 6.5036800133 58.2467293982 17.1271080244
C 0.1204916595 62.487184024 6.5036494193
C 17.1270004781 62.4870046479 10.7439990204
C 0.1204797896 58.2467418027 10.7439429068
C 17.1273768333 58.2468243157 6.5035795592
C 15.1275890349 60.4874962347 2.1202198705
C 2.1202474358 60.2465051508 2.1201122552
C 2.1201254083 60.4874171747 15.127461909
C 15.1274042051 60.24643339 15.127587148
C 2.120141121 66.8705365445 8.7443966452
C 2.1201785657 53.8632266605 8.5032633057
C 15.1275932537 53.8633508508 8.7442691122
C 15.1274957628 66.8706013097 8.5033629732
C 8.7444019368 53.8631940658 15.127522138
C 8.5033814214 53.8633272042 2.1201932332
C 8.7443223421 66.8707196875 2.1203183894
C 8.5033962544 66.8706011199 15.127619177
C 6.3922740834 67.182371166 11.8414446655
C 10.8551832622 53.5513381054 11.8413395787
C 10.8551965877 67.1825464096 5.4062710437
C 6.3923053638 53.5515588243 5.4063592933
C 11.8414538758 58.1355696999 15.4394297621
C 11.841441523 62.5984389917 1.8085202295
C 5.4063302481 62.5984369806 15.4393682361
C 5.4063159636 58.1355240245 1.8082826493
C 15.4392810145 63.5844819598 6.392288637
C 1.8081881664 63.5843816092 10.8552516045
C 15.4393750903 57.1492136308 10.855127421
C 1.808525973 57.1494049665 6.3922555456
C 15.4393321505 58.1352385648 11.8413510691
C 1.8082092224 62.5982171241 11.8413360361
C 15.4393548208 62.5983530153 5.4061663846
C 1.8085546973 58.1356003387 5.4062009973
C 6.3924245351 63.5846068193 15.4394310591
C 10.8553206815 63.584562917 1.8085418857
C 10.8553638007 57.1493893193 15.4394308694
C 6.3924287021 57.1493870047 1.8082874408
C 11.8413873963 67.1825276475 6.392346848
C 11.8413311722 53.5513698516 10.8552333564
C 5.406168413 67.1823922565 10.8552859032
C 5.4061965233 53.5515000303 6.392507224
C 15.0162935834 58.558634311 3.2175792392
C 2.2315447259 62.1753797136 3.2174732935
C 2.2313507065 58.5585520808 14.0300811118
C 15.0161642291 62.1752178888 14.0300759444
C 3.2175306766 66.7592270465 6.8155437213
C 3.2175211248 53.9744836531 10.4321527533
C 14.0300768275 53.9745484113 6.8154641646
C 14.0301248382 66.7594071574 10.4322334759
C 6.8155915837 54.9606430811 15.0161212617
C 10.4322905244 54.9606712397 2.2314247164
C 6.8154869695 65.7732515066 2.231544957
C 10.4322703619 65.7732271528 15.0163659686
C 6.8154381861 66.7593780915 3.217666209
C 10.4322561498 53.9745840002 3.2175901535
C 6.8155662985 53.9744534282 14.0300709322
C 10.4322049448 66.7592483371 14.0301345452
C 15.0161900903 54.960704683 6.8154021108
C 2.2314608779 54.9606694528 10.4320822136
C 2.2313505133 65.7731365886 6.8155478194
C 15.0161764371 65.7732096878 10.4322134376
C 3.2175830302 58.558613631 15.0161165116
C 3.2176312755 62.1753801551 2.2312946308
C 14.0301254177 58.5586718868 2.2314791777
C 14.0301186394 62.175341334 15.0162919725
C 6.9535851363 53.2367083907 10.2941685385
C 10.294158352 67.4969511695 10.2941015553
C 10.2942094121 53.2368931411 6.9535832287
C 6.9535491266 67.4971722091 6.9535166733
C 10.2941215247 58.6966679576 1.4937631888
C 10.2940989613 62.0373296506 15.7541689377
C 6.9535665019 62.0372249432 1.4937394525
C 6.9535661363 58.6965976387 15.7539018605
C 1.4937162647 62.0373927461 6.9535949606
C 15.7537604052 62.0371625755 10.2941377169
C 1.4936826351 58.6967278037 10.2941237842
C 15.7541635874 58.6966833771 6.9534696043
C 15.5774896736 61.8607002944 1.6703597122
C 1.6703957979 58.8732701935 1.67029048
C 1.6702599688 61.8606278264 15.577326669
C 15.5772292643 58.8732371159 15.5775307852
C 1.6702779754 67.3204483321 10.1175926433
C 1.6703427681 53.4133510517 7.130041843
C 15.5775565463 53.4135497556 10.1174766732
C 15.577398892 67.3204469454 7.1301586376
C 10.117614503 53.4133515277 15.5774314557
C 7.1301471333 53.4134751455 1.670327497
C 10.1175436564 67.320634521 1.6704922849
C 7.1301936987 67.3204913065 15.5775098016
C 6.5036575671 51.863508667 27.9917318773
C 10.7439990929 68.8701738705 27.9916677986
C 10.744038804 51.8636870669 23.7513837008
C 6.5036289463 68.8703719466 23.7513861397
C 10.74402424 58.2468147122 17.368261147
C 10.7439972439 62.4871828615 34.3750806416
C 6.5037191035 62.4871424536 17.3682345476
C 6.5036800133 58.2467293982 34.3748080244
C 0.1204916595 62.487184024 23.7513494193
C 17.1270004781 62.4870046479 27.9916990204
C 0.1204797896 58.2467418027 27.9916429068
C 17.1273768333 58.2468243157 23.7512795558
C 15.1275890349 60.4874962347 19.3679198705
C 2.1202474358 60.2465051508 19.3678122552
C 2.1201254083 60.4874171747 32.375161909
C 15.1274042051 60.24643339 32.375287148
C 2.120141121 66.8705365445 25.9920966452
C 2.1201785657 53.8632266605 25.7509633057
C 15.1275932537 53.8633508508 25.9919691122
C 15.1274957628 66.8706013097 25.7510629732
C 8.7444019368 53.8631940658 32.3752221414
C 8.5033814214 53.8633272042 19.3678932366
C 8.7443223421 66.8707196875 19.3680183894
C 8.5033962544 66.8706011199 32.375319177
C 6.3922740834 67.182371166 29.0891446655
C 10.8551832622 53.5513381054 29.0890395753
C 10.8551965877 67.1825464096 22.6539710437
C 6.3923053638 53.5515588243 22.6540592933
C 11.8414538758 58.1355696999 32.6871297621
C 11.841441523 62.5984389917 19.0562202295
C 5.4063302481 62.5984369806 32.6870682361
C 5.4063159636 58.1355240245 19.0559826493
C 15.4392810145 63.5844819598 23.639988637
C 1.8081881664 63.5843816092 28.102951601
C 15.4393750903 57.1492136308 28.102827421
C 1.808525973 57.1494049665 23.6399555456
C 15.4393321505 58.1352385648 29.0890510657
C 1.8082092224 62.5982171241 29.0890360361
C 15.4393548208 62.5983530153 22.6538663812
C 1.8085546973 58.1356003387 22.6539009939
C 6.3924245351 63.5846068193 32.6871310591
C 10.8553206815 63.584562917 19.0562418857
C 10.8553638007 57.1493893193 32.6871308694
C 6.3924287021 57.1493870047 19.0559874408
C 11.8413873963 67.1825276475 23.640046848
C 11.8413311722 53.5513698516 28.1029333564
C 5.406168413 67.1823922565 28.1029859032
C 5.4061965233 53.5515000303 23.640207224
C 15.0162935834 58.558634311 20.4652792357
C 2.2315447259 62.1753797136 20.4651732935
C 2.2313507065 58.5585520808 31.2777811118
C 15.0161642291 62.1752178888 31.2777759444
C 3.2175306766 66.7592270465 24.0632437213
C 3.2175211248 53.9744836531 27.6798527533
C 14.0300768275 53.9745484113 24.0631641646
C 14.0301248382 66.7594071574 27.6799334759
C 6.8155915837 54.9606430811 32.2638212617
C 10.4322905244 54.9606712397 19.4791247164
C 6.8154869695 65.7732515066 19.479244957
C 10.4322703619 65.7732271528 32.2640659686
C 6.8154381861 66.7593780915 20.4653662124
C 10.4322561498 53.9745840002 20.4652901535
C 6.8155662985 53.9744534282 31.2777709288
C 10.4322049448 66.7592483371 31.2778345452
C 15.0161900903 54.960704683 24.0631021108
C 2.2314608779 54.9606694528 27.6797822136
C 2.2313505133 65.7731365886 24.0632478194
C 15.0161764371 65.7732096878 27.6799134341
C 3.2175830302 58.558613631 32.2638165116
C 3.2176312755 62.1753801551 19.4789946308
C 14.0301254177 58.5586718868 19.4791791777
C 14.0301186394 62.175341334 32.2639919725
C 6.9535851363 53.2367083907 27.541868542
C 10.294158352 67.4969511695 27.5418015553
C 10.2942094121 53.2368931411 24.2012832253
C 6.9535491266 67.4971722091 24.2012166733
C 10.2941215247 58.6966679576 18.7414631888
C 10.2940989613 62.0373296506 33.0018689377
C 6.9535665019 62.0372249432 18.7414394525
C 6.9535661363 58.6965976387 33.0016018605
C 1.4937162647 62.0373927461 24.2012949606
C 15.7537604052 62.0371625755 27.5418377169
C 1.4936826351 58.6967278037 27.5418237842
C 15.7541635874 58.6966833771 24.2011696043
C 15.5774896736 61.8607002944 18.9180597088
C 1.6703957979 58.8732701935 18.91799048
C 1.6702599688 61.8606278264 32.825026669
C 15.5772292643 58.8732371159 32.8252307886
C 1.6702779754 67.3204483321 27.3652926433
C 1.6703427681 53.4133510517 24.377741843
C 15.5775565463 53.4135497556 27.3651766732
C 15.577398892 67.3204469454 24.3778586376
C 10.117614503 53.4133515277 32.8251314591
C 7.1301471333 53.4134751455 18.9180274935
C 10.1175436564 67.320634521 18.9181922884
C 7.1301936987 67.3204913065 32.8252098016
C 23.7513575671 34.615808667 10.7440318807
C 27.9916990929 51.6224738705 10.7439677986
C 27.991738804 34.6159870669 6.5036837008
C 23.7513289463 51.6226719466 6.5036861397
C 27.99172424 40.9991147122 0.1205611436
C 27.9916972405 45.2394828615 17.1273806381
C 23.7514191035 45.2394424536 0.1205345476
C 23.7513800133 40.9990293982 17.1271080244
C 17.3681916595 45.239484024 6.5036494193
C 34.3747004781 45.2393046479 10.7439990204
C 17.3681797862 40.9990418027 10.7439429068
C 34.3750768333 40.9991243157 6.5035795592
C 32.3752890349 43.2397962347 2.1202198705
C 19.3679474358 42.9988051508 2.1201122552
C 19.3678254083 43.2397171747 15.127461909
C 32.3751042051 42.9987333865 15.127587148
C 19.367841121 49.6228365445 8.7443966452
C 19.3678785657 36.6155266605 8.5032633057
C 32.3752932537 36.6156508508 8.7442691122
C 32.3751957628 49.6229013062 8.5033629732
C 25.9921019368 36.6154940658 15.127522138
C 25.7510814214 36.6156272042 2.1201932332
C 25.9920223421 49.6230196875 2.1203183894
C 25.7510962544 49.6229011199 15.127619177
C 23.6399740834 49.934671166 11.8414446655
C 28.1028832622 36.303638102 11.8413395787
C 28.1028965912 49.9348464096 5.4062710437
C 23.6400053638 36.3038588208 5.4063592933
C 29.0891538792 40.8878696999 15.4394297621
C 29.089141523 45.3507389917 1.8085202295
C 22.6540302481 45.3507369806 15.4393682361
C 22.6540159636 40.887824028 1.8082826493
C 32.6869810179 46.3367819598 6.392288637
C 19.0558881664 46.3366816127 10.8552516045
C 32.6870750869 39.9015136308 10.855127421
C 19.056225973 39.9017049665 6.3922555456
C 32.6870321505 40.8875385648 11.8413510691
C 19.0559092224 45.3505171241 11.8413360361
C 32.6870548208 45.3506530153 5.4061663846
C 19.0562546973 40.8879003387 5.4062009973
C 23.6401245351 46.3369068193 15.4394310591
C 28.1030206815 46.336862917 1.8085418857
C 28.1030638042 39.9016893193 15.4394308694
C 23.6401286987 39.9016870047 1.8082874408
C 29.0890873928 49.9348276475 6.392346848
C 29.0890311757 36.3036698516 10.8552333564
C 22.653868413 49.9346922565 10.8552859032
C 22.6538965233 36.3038000303 6.392507224
C 32.2639935834 41.310934311 3.2175792392
C 19.4792447259 44.9276797136 3.2174732935
C 19.4790507065 41.3108520808 14.0300811118
C 32.2638642291 44.9275178888 14.0300759444
C 20.4652306766 49.5115270465 6.8155437213
C 20.4652211248 36.7267836531 10.4321527533
C 31.2777768275 36.7268484113 6.8154641646
C 31.2778248416 49.5117071574 10.4322334759
C 24.0632915837 37.7129430811 15.0161212617
C 27.6799905244 37.7129712397 2.2314247164
C 24.063186966 48.5255515066 2.231544957
C 27.6799703619 48.5255271494 15.0163659686
C 24.0631381861 49.5116780915 3.217666209
C 27.6799561498 36.7268840002 3.2175901535
C 24.0632662985 36.7267534282 14.0300709322
C 27.6799049448 49.5115483405 14.0301345452
C 32.2638900903 37.713004683 6.8154021108
C 19.4791608779 37.7129694528 10.4320822136
C 19.4790505133 48.5254365886 6.8155478194
C 32.2638764371 48.5255096878 10.4322134376
C 20.4652830302 41.310913631 15.0161165116
C 20.4653312755 44.9276801551 2.2312946308
C 31.2778254177 41.3109718868 2.2314791777
C 31.2778186428 44.9276413375 15.0162919725
C 24.2012851363 35.9890083907 10.2941685385
C 27.541858352 50.249251173 10.2941015553
C 27.5419094121 35.9891931411 6.9535832287
C 24.2012491266 50.2494722091 6.9535166733
C 27.5418215247 41.4489679576 1.4937631888
C 27.5417989613 44.7896296506 15.7541689377
C 24.2012665019 44.7895249432 1.4937394525
C 24.2012661363 41.4488976387 15.7539018605
C 18.7414162647 44.7896927461 6.9535949606
C 33.0014604052 44.7894625755 10.2941377169
C 18.7413826351 41.4490278037 10.2941237842
C 33.0018635874 41.4489833771 6.9534696043
C 32.8251896736 44.6130002944 1.6703597122
C 18.9180957979 41.6255701935 1.67029048
C 18.9179599688 44.612927823 15.577326669
C 32.8249292643 41.6255371159 15.5775307852
C 18.9179779754 50.0727483321 10.1175926433
C 18.9180427681 36.1656510517 7.130041843
C 32.8252565463 36.1658497521 10.1174766732
C 32.825098892 50.0727469454 7.1301586376
C 27.365314503 36.1656515277 15.5774314557
C 24.3778471333 36.1657751455 1.670327497
C 27.3652436564 50.0729345176 1.6704922849
C 24.3778936952 50.0727913065 15.5775098016
C 23.7513575671 34.615808667 27.9917318773
C 27.9916990929 51.6224738705 27.9916677986
C 27.991738804 34.6159870669 23.7513837008
C 23.7513289463 51.6226719466 23.7513861397
C 27.99172424 40.9991147122 17.368261147
C 27.9916972405 45.2394828615 34.3750806416
C 23.7514191035 45.2394424536 17.3682345476
C 23.7513800133 40.9990293982 34.3748080244
C 17.3681916595 45.239484024 23.7513494193
C 34.3747004781 45.2393046479 27.9916990204
C 17.3681797862 40.9990418027 27.9916429068
C 34.3750768333 40.9991243157 23.7512795558
C 32.3752890349 43.2397962347 19.3679198705
C 19.3679474358 42.9988051508 19.3678122552
C 19.3678254083 43.2397171747 32.375161909
C 32.3751042051 42.9987333865 32.375287148
C 19.367841121 49.6228365445 25.9920966452
C 19.3678785657 36.6155266605 25.7509633057
C 32.3752932537 36.6156508508 25.9919691122
C 32.3751957628 49.6229013062 25.7510629732
C 25.9921019368 36.6154940658 32.3752221414
C 25.7510814214 36.6156272042 19.3678932366
C 25.9920223421 49.6230196875 19.3680183894
C 25.7510962544 49.6229011199 32.375319177
C 23.6399740834 49.934671166 29.0891446655
C 28.1028832622 36.303638102 29.0890395753
C 28.1028965912 49.9348464096 22.6539710437
C 23.6400053638 36.3038588208 22.6540592933
C 29.0891538792 40.8878696999 32.6871297621
C 29.089141523 45.3507389917 19.0562202295
C 22.6540302481 45.3507369806 32.6870682361
C 22.6540159636 40.887824028 19.0559826493
C 32.6869810179 46.3367819598 23.639988637
C 19.0558881664 46.3366816127 28.102951601
C 32.6870750869 39.9015136308 28.102827421
C 19.056225973 39.9017049665 23.6399555456
C 32.6870321505 40.8875385648 29.0890510657
C 19.0559092224 45.3505171241 29.0890360361
C 32.6870548208 45.3506530153 22.6538663812
C 19.0562546973 40.8879003387 22.6539009939
C 23.6401245351 46.3369068193 32.6871310591
C 28.1030206815 46.336862917 19.0562418857
C 28.1030638042 39.9016893193 32.6871308694
C 23.6401286987 39.9016870047 19.0559874408
C 29.0890873928 49.9348276475 23.640046848
C 29.0890311757 36.3036698516 28.1029333564
C 22.653868413 49.9346922565 28.1029859032
C 22.6538965233 36.3038000303 23.640207224
C 32.2639935834 41.310934311 20.4652792357
C 19.4792447259 44.9276797136 20.4651732935
C 19.4790507065 41.3108520808 31.2777811118
C 32.2638642291 44.9275178888 31.2777759444
C 20.4652306766 49.5115270465 24.0632437213
C 20.4652211248 36.7267836531 27.6798527533
C 31.2777768275 36.7268484113 24.0631641646
C 31.2778248416 49.5117071574 27.6799334759
C 24.0632915837 37.7129430811 32.2638212617
C 27.6799905244 37.7129712397 19.4791247164
C 24.063186966 48.5255515066 19.479244957
C 27.6799703619 48.5255271494 32.2640659686
C 24.0631381861 49.5116780915 20.4653662124
C 27.6799561498 36.7268840002 20.4652901535
C 24.0632662985 36.7267534282 31.2777709288
C 27.6799049448 49.5115483405 31.2778345452
C 32.2638900903 37.713004683 24.0631021108
C 19.4791608779 37.7129694528 27.6797822136
C 19.4790505133 48.5254365886 24.0632478194
C 32.2638764371 48.5255096878 27.6799134341
C 20.4652830302 41.310913631 32.2638165116
C 20.4653312755 44.9276801551 19.4789946308
C 31.2778254177 41.3109718868 19.4791791777
C 31.2778186428 44.9276413375 32.2639919725
C 24.2012851363 35.9890083907 27.541868542
C 27.541858352 50.249251173 27.5418015553
C 27.5419094121 35.9891931411 24.2012832253
C 24.2012491266 50.2494722091 24.2012166733
C 27.5418215247 41.4489679576 18.7414631888
C 27.5417989613 44.7896296506 33.0018689377
C 24.2012665019 44.7895249432 18.7414394525
C 24.2012661363 41.4488976387 33.0016018605
C 18.7414162647 44.7896927461 24.2012949606
C 33.0014604052 44.7894625755 27.5418377169
C 18.7413826351 41.4490278037 27.5418237842
C 33.0018635874 41.4489833771 24.2011696043
C 32.8251896736 44.6130002944 18.9180597088
C 18.9180957979 41.6255701935 18.91799048
C 18.9179599688 44.612927823 32.825026669
C 32.8249292643 41.6255371159 32.8252307886
C 18.9179779754 50.0727483321 27.3652926433
C 18.9180427681 36.1656510517 24.377741843
C 32.8252565463 36.1658497521 27.3651766732
C 32.825098892 50.0727469454 24.3778586376
C 27.365314503 36.1656515277 32.8251314591
C 24.3778471333 36.1657751455 18.9180274935
C 27.3652436564 50.0729345176 18.9181922884
C 24.3778936952 50.0727913065 32.8252098016
C 23.7513575671 51.863508667 10.7440318807
C 27.9916990929 68.8701738705 10.7439677986
C 27.991738804 51.8636870669 6.5036837008
C 23.7513289463 68.8703719466 6.5036861397
C 27.99172424 58.2468147122 0.1205611436
C 27.9916972405 62.4871828615 17.1273806381
C 23.7514191035 62.4871424536 0.1205345476
C 23.7513800133 58.2467293982 17.1271080244
C 17.3681916595 62.487184024 6.5036494193
C 34.3747004781 62.4870046479 10.7439990204
C 17.3681797862 58.2467418027 10.7439429068
C 34.3750768333 58.2468243157 6.5035795592
C 32.3752890349 60.4874962347 2.1202198705
C 19.3679474358 60.2465051508 2.1201122552
C 19.3678254083 60.4874171747 15.127461909
C 32.3751042051 60.24643339 15.127587148
C 19.367841121 66.8705365445 8.7443966452
C 19.3678785657 53.8632266605 8.5032633057
C 32.3752932537 53.8633508508 8.7442691122
C 32.3751957628 66.8706013097 8.5033629732
C 25.9921019368 53.8631940658 15.127522138
C 25.7510814214 53.8633272042 2.1201932332
C 25.9920223421 66.8707196875 2.1203183894
C 25.7510962544 66.8706011199 15.127619177
C 23.6399740834 67.182371166 11.8414446655
C 28.1028832622 53.5513381054 11.8413395787
C 28.1028965912 67.1825464096 5.4062710437
C 23.6400053638 53.5515588243 5.4063592933
C 29.0891538792 58.1355696999 15.4394297621
C 29.089141523 62.5984389917 1.8085202295
C 22.6540302481 62.5984369806 15.4393682361
C 22.6540159636 58.1355240245 1.8082826493
C 32.6869810179 63.5844819598 6.392288637
C 19.0558881664 63.5843816092 10.8552516045
C 32.6870750869 57.1492136308 10.855127421
C 19.056225973 57.1494049665 6.3922555456
C 32.6870321505 58.1352385648 11.8413510691
C 19.0559092224 62.5982171241 11.8413360361
C 32.6870548208 62.5983530153 5.4061663846
C 19.0562546973 58.1356003387 5.4062009973
C 23.6401245351 63.5846068193 15.4394310591
C 28.1030206815 63.584562917 1.8085418857
C 28.1030638042 57.1493893193 15.4394308694
C 23.6401286987 57.1493870047 1.8082874408
C 29.0890873928 67.1825276475 6.392346848
C 29.0890311757 53.5513698516 10.8552333564
C 22.653868413 67.1823922565 10.8552859032
C 22.6538965233 53.5515000303 6.392507224
C 32.2639935834 58.558634311 3.2175792392
C 19.4792447259 62.1753797136 3.2174732935
C 19.4790507065 58.5585520808 14.0300811118
C 32.2638642291 62.1752178888 14.0300759444
C 20.4652306766 66.7592270465 6.8155437213
C 20.4652211248 53.9744836531 10.4321527533
C 31.2777768275 53.9745484113 6.8154641646
C 31.2778248416 66.7594071574 10.4322334759
C 24.0632915837 54.9606430811 15.0161212617
C 27.6799905244 54.9606712397 2.2314247164
C 24.063186966 65.7732515066 2.231544957
C 27.6799703619 65.7732271528 15.0163659686
C 24.0631381861 66.7593780915 3.217666209
C 27.6799561498 53.9745840002 3.2175901535
C 24.0632662985 53.9744534282 14.0300709322
C 27.6799049448 66.7592483371 14.0301345452
C 32.2638900903 54.960704683 6.8154021108
C 19.4791608779 54.9606694528 10.4320822136
C 19.4790505133 65.7731365886 6.8155478194
C 32.2638764371 65.7732096878 10.4322134376
C 20.4652830302 58.558613631 15.0161165116
C 20.4653312755 62.1753801551 2.2312946308
C 31.2778254177 58.5586718868 2.2314791777
C 31.2778186428 62.175341334 15.0162919725
C 24.2012851363 53.2367083907 10.2941685385
C 27.541858352 67.4969511695 10.2941015553
C 27.5419094121 53.2368931411 6.9535832287
C 24.2012491266 67.4971722091 6.9535166733
C 27.5418215247 58.6966679576 1.4937631888
C 27.5417989613 62.0373296506 15.7541689377
C 24.2012665019 62.0372249432 1.4937394525
C 24.2012661363 58.6965976387 15.7539018605
C 18.7414162647 62.0373927461 6.9535949606
C 33.0014604052 62.0371625755 10.2941377169
C 18.7413826351 58.6967278037 10.2941237842
C 33.0018635874 58.6966833771 6.9534696043
C 32.8251896736 61.8607002944 1.6703597122
C 18.9180957979 58.8732701935 1.67029048
C 18.9179599688 61.8606278264 15.577326669
C 32.8249292643 58.8732371159 15.5775307852
C 18.9179779754 67.3204483321 10.1175926433
C 18.9180427681 53.4133510517 7.130041843
C 32.8252565463 53.4135497556 10.1174766732
C 32.825098892 67.3204469454 7.1301586376
C 27.365314503 53.4133515277 15.5774314557
C 24.3778471333 53.4134751455 1.670327497
C 27.3652436564 67.320634521 1.6704922849
C 24.3778936952 67.3204913065 15.5775098016
C 23.7513575671 51.863508667 27.9917318773
C 27.9916990929 68.8701738705 27.9916677986
C 27.991738804 51.8636870669 23.7513837008
C 23.7513289463 68.8703719466 23.7513861397
C 27.99172424 58.2468147122 17.368261147
C 27.9916972405 62.4871828615 34.3750806416
C 23.7514191035 62.4871424536 17.3682345476
C 23.7513800133 58.2467293982 34.3748080244
C 17.3681916595 62.487184024 23.7513494193
C 34.3747004781 62.4870046479 27.9916990204
C 17.3681797862 58.2467418027 27.9916429068
C 34.3750768333 58.2468243157 23.7512795558
C 32.3752890349 60.4874962347 19.3679198705
C 19.3679474358 60.2465051508 19.3678122552
C 19.3678254083 60.4874171747 32.375161909
C 32.3751042051 60.24643339 32.375287148
C 19.367841121 66.8705365445 25.9920966452
C 19.3678785657 53.8632266605 25.7509633057
C 32.3752932537 53.8633508508 25.9919691122
C 32.3751957628 66.8706013097 25.7510629732
C 25.9921019368 53.8631940658 32.3752221414
C 25.7510814214 53.8633272042 19.3678932366
C 25.9920223421 66.8707196875 19.3680183894
C 25.7510962544 66.8706011199 32.375319177
C 23.6399740834 67.182371166 29.0891446655
C 28.1028832622 53.5513381054 29.0890395753
C 28.1028965912 67.1825464096 22.6539710437
C 23.6400053638 53.5515588243 22.6540592933
C 29.0891538792 58.1355696999 32.6871297621
C 29.089141523 62.5984389917 19.0562202295
C 22.6540302481 62.5984369806 32.6870682361
C 22.6540159636 58.1355240245 19.0559826493
C 32.6869810179 63.5844819598 23.639988637
C 19.0558881664 63.5843816092 28.102951601
C 32.6870750869 57.1492136308 28.102827421
C 19.056225973 57.1494049665 23.6399555456
C 32.6870321505 58.1352385648 29.0890510657
C 19.0559092224 62.5982171241 29.0890360361
C 32.6870548208 62.5983530153 22.6538663812
C 19.0562546973 58.1356003387 22.6539009939
C 23.6401245351 63.5846068193 32.6871310591
C 28.1030206815 63.584562917 19.0562418857
C 28.1030638042 57.1493893193 32.6871308694
C 23.6401286987 57.1493870047 19.0559874408
C 29.0890873928 67.1825276475 23.640046848
C 29.0890311757 53.5513698516 28.1029333564
C 22.653868413 67.1823922565 28.1029859032
C 22.6538965233 53.5515000303 23.640207224
C 32.2639935834 58.558634311 20.4652792357
C 19.4792447259 62.1753797136 20.4651732935
C 19.4790507065 58.5585520808 31.2777811118
C 32.2638642291 62.1752178888 31.2777759444
C 20.4652306766 66.7592270465 24.0632437213
C 20.4652211248 53.9744836531 27.6798527533
C 31.2777768275 53.9745484113 24.0631641646
C 31.2778248416 66.7594071574 27.6799334759
C 24.0632915837 54.9606430811 32.2638212617
C 27.6799905244 54.9606712397 19.4791247164
C 24.063186966 65.7732515066 19.479244957
C 27.6799703619 65.7732271528 32.2640659686
C 24.0631381861 66.7593780915 20.4653662124
C 27.6799561498 53.9745840002 20.4652901535
C 24.0632662985 53.9744534282 31.2777709288
C 27.6799049448 66.7592483371 31.2778345452
C 32.2638900903 54.960704683 24.0631021108
C 19.4791608779 54.9606694528 27.6797822136
C 19.4790505133 65.7731365886 24.0632478194
C 32.2638764371 65.7732096878 27.6799134341
C 20.4652830302 58.558613631 32.2638165116
C 20.4653312755 62.1753801551 19.4789946308
C 31.2778254177 58.5586718868 19.4791791777
C 31.2778186428 62.175341334 32.2639919725
C 24.2012851363 53.2367083907 27.541868542
C 27.541858352 67.4969511695 27.5418015553
C 27.5419094121 53.2368931411 24.2012832253
C 24.2012491266 67.4971722091 24.2012166733
C 27.5418215247 58.6966679576 18.7414631888
C 27.5417989613 62.0373296506 33.0018689377
C 24.2012665019 62.0372249432 18.7414394525
C 24.2012661363 58.6965976387 33.0016018605
C 18.7414162647 62.0373927461 24.2012949606
C 33.0014604052 62.0371625755 27.5418377169
C 18.7413826351 58.6967278037 27.5418237842
C 33.0018635874 58.6966833771 24.2011696043
C 32.8251896736 61.8607002944 18.9180597088
C 18.9180957979 58.8732701935 18.91799048
C 18.9179599688 61.8606278264 32.825026669
C 32.8249292643 58.8732371159 32.8252307886
C 18.9179779754 67.3204483321 27.3652926433
C 18.9180427681 53.4133510517 24.377741843
C 32.8252565463 53.4135497556 27.3651766732
C 32.825098892 67.3204469454 24.3778586376
C 27.365314503 53.4133515277 32.8251314591
C 24.3778471333 53.4134751455 18.9180274935
C 27.3652436564 67.320634521 18.9181922884
C 24.3778936952 67.3204913065 32.8252098016
Zn 8.6238463504 34.495240957 12.9357967838
Zn 8.6237767214 34.4955568161 4.31199931
Zn 12.9357525538 43.1193741076 1.2673959275e-04
Zn 4.3119773778 43.1192438564 -1.017853594e-04
Zn -1.365468904e-04 47.4311270583 8.6238764476
Zn 1.1251926891e-04 38.8073706616 8.6236518308
Zn -1.7477512255e-04 43.1191034739 12.9357706501
Zn 1.5616825623e-04 43.1193182491 4.3119119573
Zn 8.6239027538 47.431260828 1.859293081e-04
Zn 8.623889956 38.8073035025 -2.7459185405e-05
Zn 12.9358452395 34.4954260991 8.6238515661
Zn 4.311881215 34.4953304075 8.6238636981
Zn 8.6238463504 34.495240957 30.1834967838
Zn 8.6237767214 34.4955568161 21.55969931
Zn 12.9357525538 43.1193741076 17.2478267395
Zn 4.3119773778 43.1192438564 17.2475982144
Zn -1.365468904e-04 47.4311270583 25.8715764442
Zn 1.1251926891e-04 38.8073706616 25.8713518308
Zn -1.7477512255e-04 43.1191034739 30.1834706501
Zn 1.5616825623e-04 43.1193182491 21.5596119573
Zn 8.6239027538 47.431260828 17.2478859302
Zn 8.623889956 38.8073035025 17.2476725417
Zn 12.9358452395 34.4954260991 25.8715515661
Zn 4.311881215 34.4953304075 25.8715636981
Zn 8.6238463504 51.7429409555 12.9357967838
Zn 8.6237767214 51.7432568161 4.31199931
Zn 12.9357525538 60.3670741076 1.2673959275e-04
Zn 4.3119773778 60.3669438564 -1.017853594e-04
Zn -1.365468904e-04 64.6788270583 8.6238764476
Zn 1.1251926891e-04 56.0550706581 8.6236518308
Zn -1.7477512255e-04 60.3668034739 12.9357706501
Zn 1.5616825623e-04 60.3670182491 4.3119119573
Zn 8.6239027538 64.678960828 1.859293081e-04
Zn 8.623889956 56.0550035025 -2.7459185405e-05
Zn 12.9358452395 51.7431260992 8.6238515661
Zn 4.311881215 51.743030409 8.6238636981
Zn 8.6238463504 51.7429409555 30.1834967838
Zn 8.6237767214 51.7432568161 21.55969931
Zn 12.9357525538 60.3670741076 17.2478267395
Zn 4.3119773778 60.3669438564 17.2475982144
Zn -1.365468904e-04 64.6788270583 25.8715764442
Zn 1.1251926891e-04 56.0550706581 25.8713518308
Zn -1.7477512255e-04 60.3668034739 30.1834706501
Zn 1.5616825623e-04 60.3670182491 21.5596119573
Zn 8.6239027538 64.678960828 17.2478859302
Zn 8.623889956 56.0550035025 17.2476725417
Zn 12.9358452395 51.7431260992 25.8715515661
Zn 4.311881215 51.743030409 25.8715636981
Zn 25.8715463504 34.495240957 12.9357967838
Zn 25.8714767249 34.4955568161 4.31199931
Zn 30.1834525538 43.1193741076 1.2673959275e-04
Zn 21.5596773744 43.1192438564 -1.017853594e-04
Zn 17.2475634534 47.4311270583 8.6238764476
Zn 17.2478125205 38.8073706616 8.6236518308
Zn 17.2475252256 43.1191034739 12.9357706501
Zn 17.2478561676 43.1193182491 4.3119119573
Zn 25.8716027538 47.431260828 1.859293081e-04
Zn 25.871589956 38.8073035025 -2.7459185405e-05
Zn 30.1835452395 34.4954260991 8.6238515661
Zn 21.559581215 34.4953304075 8.6238636981
Zn 25.8715463504 34.495240957 30.1834967838
Zn 25.8714767249 34.4955568161 21.55969931
Zn 30.1834525538 43.1193741076 17.2478267395
Zn 21.5596773744 43.1192438564 17.2475982144
Zn 17.2475634534 47.4311270583 25.8715764442
Zn 17.2478125205 38.8073706616 25.8713518308
Zn 17.2475252256 43.1191034739 30.1834706501
Zn 17.2478561676 43.1193182491 21.5596119573
Zn 25.8716027538 47.431260828 17.2478859302
Zn 25.871589956 38.8073035025 17.2476725417
Zn 30.1835452395 34.4954260991 25.8715515661
Zn 21.559581215 34.4953304075 25.8715636981
Zn 25.8715463504 51.7429409555 12.9357967838
Zn 25.8714767249 51.7432568161 4.31199931
Zn 30.1834525538 60.3670741076 1.2673959275e-04
Zn 21.5596773744 60.3669438564 -1.017853594e-04
Zn 17.2475634534 64.6788270583 8.6238764476
Zn 17.2478125205 56.0550706581 8.6236518308
Zn 17.2475252256 60.3668034739 12.9357706501
Zn 17.2478561676 60.3670182491 4.3119119573
Zn 25.8716027538 64.678960828 1.859293081e-04
Zn 25.871589956 56.0550035025 -2.7459185405e-05
Zn 30.1835452395 51.7431260992 8.6238515661
Zn 21.559581215 51.743030409 8.6238636981
Zn 25.8715463504 51.7429409555 30.1834967838
Zn 25.8714767249 51.7432568161 21.55969931
Zn 30.1834525538 60.3670741076 17.2478267395
Zn 21.5596773744 60.3669438564 17.2475982144
Zn 17.2475634534 64.6788270583 25.8715764442
Zn 17.2478125205 56.0550706581 25.8713518308
Zn 17.2475252256 60.3668034739 30.1834706501
Zn 17.2478561676 60.3670182491 21.5596119573
Zn 25.8716027538 64.678960828 17.2478859302
Zn 25.871589956 56.0550035025 17.2476725417
Zn 30.1835452395 51.7431260992 25.8715515661
Zn 21.559581215 51.743030409 25.8715636981
N 7.0791951991 51.155320844 11.7691278708
N 10.1683635043 35.0829350804 11.7690218009
N 10.1683595787 51.155526026 5.4786451249
N 7.0791956959 35.0832023852 5.4786359147
N 11.769082599 41.5747518255 16.6600890539
N 11.7690804189 44.6638873876 0.5878432933
N 5.4786764295 44.6638280107 16.6600119463
N 5.4786335655 41.5746580877 0.5875927084
N 16.6599447493 46.2645175774 7.07920423
N 0.5874738373 46.2643990546 10.1684327331
N 16.6600398945 39.9739983354 10.1682439191
N 0.5878339382 39.9740116954 7.0791115236
N 16.6599803761 41.5744804536 11.7690823472
N 0.5875167426 44.6636565478 11.7690161126
N 16.6600632755 44.6638437199 5.4785628603
N 0.587889086 41.5747792252 5.4785705942
N 7.0792945873 46.2645619143 16.660108223
N 10.1684267723 46.2645439491 0.5878774507
N 10.1684745484 39.9740109538 16.6600898335
N 7.079275532 39.9739734642 0.5876013599
N 11.7691291437 51.155491441 7.0792248272
N 11.7690632678 35.0829887483 10.1683887169
N 5.478569511 51.1553553394 10.1684135812
N 5.4785547918 35.0831023727 7.0793197379
N 15.7031962786 42.5315939166 3.1452645866
N 1.5446999691 43.7069833669 3.1452022017
N 1.5444399049 42.5314944457 14.1024666076
N 15.7029597747 43.7068121282 14.1024235125
N 3.1452379044 50.1983923315 8.0362147657
N 3.145185292 36.0398888055 9.2115021336
N 14.1024884018 36.0400122025 8.0361520082
N 14.1024867011 50.1985686582 9.2115626938
N 8.0362555289 37.6406315642 15.7030248675
N 9.2116022876 37.6406461316 1.5445563648
N 8.0361834335 48.5979211138 1.5447135948
N 9.2116217395 48.5979087851 15.7032853492
N 8.0360992785 50.1985953749 3.1453604114
N 9.2115427589 36.0400585195 3.1452885264
N 8.0362114679 36.039837604 14.1024866287
N 9.2115219443 50.1983987097 14.1024577699
N 15.7031325691 37.6407159054 8.0360393048
N 1.5446264456 37.640648598 9.2113863912
N 1.5444828551 48.5977973684 8.0362186912
N 15.7030259852 48.5977987793 9.2115318031
N 3.1452898476 42.5315945617 15.7029678949
N 3.1452788677 43.7069972133 1.5444505984
N 14.1024803574 42.5316485608 1.5446317269
N 14.1024326331 43.7070110736 15.7032263103
N 7.0791951991 51.155320844 29.0168278708
N 10.1683635043 35.0829350804 29.0167217974
N 10.1683595787 51.155526026 22.7263451249
N 7.0791956959 35.0832023852 22.7263359147
N 11.769082599 41.5747518255 33.9077890504
N 11.7690804189 44.6638873876 17.8355432933
N 5.4786764295 44.6638280107 33.9077119463
N 5.4786335655 41.5746580877 17.835292705
N 16.6599447493 46.2645175774 24.32690423
N 0.5874738373 46.2643990546 27.4161327331
N 16.6600398945 39.9739983354 27.4159439191
N 0.5878339382 39.9740116954 24.3268115236
N 16.6599803761 41.5744804536 29.0167823472
N 0.5875167426 44.6636565478 29.0167161126
N 16.6600632755 44.6638437199 22.7262628603
N 0.587889086 41.5747792252 22.7262705942
N 7.0792945873 46.2645619143 33.907808223
N 10.1684267723 46.2645439491 17.8355774507
N 10.1684745484 39.9740109538 33.9077898335
N 7.079275532 39.9739734642 17.8353013599
N 11.7691291437 51.155491441 24.3269248272
N 11.7690632678 35.0829887483 27.4160887204
N 5.478569511 51.1553553394 27.4161135812
N 5.4785547918 35.0831023727 24.3270197379
N 15.7031962786 42.5315939166 20.3929645866
N 1.5446999691 43.7069833669 20.3929022017
N 1.5444399049 42.5314944457 31.3501666076
N 15.7029597747 43.7068121282 31.3501235125
N 3.1452379044 50.1983923315 25.2839147657
N 3.145185292 36.0398888055 26.4592021371
N 14.1024884018 36.0400122025 25.2838520047
N 14.1024867011 50.1985686582 26.4592626903
N 8.0362555289 37.6406315642 32.9507248675
N 9.2116022876 37.6406461316 18.7922563648
N 8.0361834335 48.5979211138 18.7924135914
N 9.2116217395 48.5979087851 32.9509853458
N 8.0360992785 50.1985953749 20.3930604114
N 9.2115427589 36.0400585195 20.3929885264
N 8.0362114679 36.039837604 31.3501866287
N 9.2115219443 50.1983987097 31.3501577699
N 15.7031325691 37.6407159054 25.2837393048
N 1.5446264456 37.640648598 26.4590863878
N 1.5444828551 48.5977973684 25.2839186912
N 15.7030259852 48.5977987793 26.4592318031
N 3.1452898476 42.5315945617 32.9506678915
N 3.1452788677 43.7069972133 18.7921505984
N 14.1024803574 42.5316485608 18.7923317269
N 14.1024326331 43.7070110736 32.9509263103
N 7.0791951991 68.403020844 11.7691278708
N 10.1683635043 52.3306350804 11.7690218009
N 10.1683595787 68.403226026 5.4786451249
N 7.0791956959 52.3309023852 5.4786359147
N 11.769082599 58.8224518255 16.6600890539
N 11.7690804189 61.9115873841 0.5878432933
N 5.4786764295 61.9115280107 16.6600119463
N 5.4786335655 58.8223580843 0.5875927084
N 16.6599447493 63.5122175774 7.07920423
N 0.5874738373 63.5120990546 10.1684327331
N 16.6600398945 57.2216983354 10.1682439191
N 0.5878339382 57.2217116954 7.0791115236
N 16.6599803761 58.8221804536 11.7690823472
N 0.5875167426 61.9113565478 11.7690161126
N 16.6600632755 61.9115437199 5.4785628603
N 0.587889086 58.8224792252 5.4785705942
N 7.0792945873 63.5122619143 16.660108223
N 10.1684267723 63.5122439491 0.5878774507
N 10.1684745484 57.2217109572 16.6600898335
N 7.079275532 57.2216734642 0.5876013599
N 11.7691291437 68.403191441 7.0792248272
N 11.7690632678 52.3306887483 10.1683887169
N 5.478569511 68.4030553394 10.1684135812
N 5.4785547918 52.3308023762 7.0793197379
N 15.7031962786 59.7792939201 3.1452645866
N 1.5446999691 60.9546833634 3.1452022017
N 1.5444399049 59.7791944457 14.1024666076
N 15.7029597747 60.9545121248 14.1024235125
N 3.1452379044 67.4460923315 8.0362147657
N 3.145185292 53.2875888055 9.2115021336
N 14.1024884018 53.2877122059 8.0361520082
N 14.1024867011 67.4462686582 9.2115626938
N 8.0362555289 54.8883315642 15.7030248675
N 9.2116022876 54.8883461316 1.5445563648
N 8.0361834335 65.8456211138 1.5447135948
N 9.2116217395 65.8456087886 15.7032853492
N 8.0360992785 67.4462953749 3.1453604114
N 9.2115427589 53.287758516 3.1452885264
N 8.0362114679 53.287537604 14.1024866287
N 9.2115219443 67.4460987097 14.1024577699
N 15.7031325691 54.8884159054 8.0360393048
N 1.5446264456 54.888348598 9.2113863912
N 1.5444828551 65.8454973684 8.0362186912
N 15.7030259852 65.8454987793 9.2115318031
N 3.1452898476 59.7792945617 15.7029678949
N 3.1452788677 60.9546972133 1.5444505984
N 14.1024803574 59.7793485608 1.5446317269
N 14.1024326331 60.9547110701 15.7032263103
N 7.0791951991 68.403020844 29.0168278708
N 10.1683635043 52.3306350804 29.0167217974
N 10.1683595787 68.403226026 22.7263451249
N 7.0791956959 52.3309023852 22.7263359147
N 11.769082599 58.8224518255 33.9077890504
N 11.7690804189 61.9115873841 17.8355432933
N 5.4786764295 61.9115280107 33.9077119463
N 5.4786335655 58.8223580843 17.835292705
N 16.6599447493 63.5122175774 24.32690423
N 0.5874738373 63.5120990546 27.4161327331
N 16.6600398945 57.2216983354 27.4159439191
N 0.5878339382 57.2217116954 24.3268115236
N 16.6599803761 58.8221804536 29.0167823472
N 0.5875167426 61.9113565478 29.0167161126
N 16.6600632755 61.9115437199 22.7262628603
N 0.587889086 58.8224792252 22.7262705942
N 7.0792945873 63.5122619143 33.907808223
N 10.1684267723 63.5122439491 17.8355774507
N 10.1684745484 57.2217109572 33.9077898335
N 7.079275532 57.2216734642 17.8353013599
N 11.7691291437 68.403191441 24.3269248272
N 11.7690632678 52.3306887483 27.4160887204
N 5.478569511 68.4030553394 27.4161135812
N 5.4785547918 52.3308023762 24.3270197379
N 15.7031962786 59.7792939201 20.3929645866
N 1.5446999691 60.9546833634 20.3929022017
N 1.5444399049 59.7791944457 31.3501666076
N 15.7029597747 60.9545121248 31.3501235125
N 3.1452379044 67.4460923315 25.2839147657
N 3.145185292 53.2875888055 26.4592021371
N 14.1024884018 53.2877122059 25.2838520047
N 14.1024867011 67.4462686582 26.4592626903
N 8.0362555289 54.8883315642 32.9507248675
N 9.2116022876 54.8883461316 18.7922563648
N 8.0361834335 65.8456211138 18.7924135914
N 9.2116217395 65.8456087886 32.9509853458
N 8.0360992785 67.4462953749 20.3930604114
N 9.2115427589 53.287758516 20.3929885264
N 8.0362114679 53.287537604 31.3501866287
N 9.2115219443 67.4460987097 31.3501577699
N 15.7031325691 54.8884159054 25.2837393048
N 1.5446264456 54.888348598 26.4590863878
N 1.5444828551 65.8454973684 25.2839186912
N 15.7030259852 65.8454987793 26.4592318031
N 3.1452898476 59.7792945617 32.9506678915
N 3.1452788677 60.9546972133 18.7921505984
N 14.1024803574 59.7793485608 18.7923317269
N 14.1024326331 60.9547110701 32.9509263103
N 24.3268951991 51.155320844 11.7691278708
N 27.4160635077 35.0829350804 11.7690218009
N 27.4160595787 51.155526026 5.4786451249
N 24.3268956959 35.0832023852 5.4786359147
N 29.016782599 41.5747518255 16.6600890539
N 29.0167804189 44.6638873876 0.5878432933
N 22.7263764295 44.6638280107 16.6600119463
N 22.7263335655 41.5746580877 0.5875927084
N 33.9076447493 46.2645175774 7.07920423
N 17.8351738373 46.2643990546 10.1684327331
N 33.9077398945 39.9739983354 10.1682439191
N 17.8355339382 39.9740116954 7.0791115236
N 33.9076803761 41.5744804536 11.7690823472
N 17.8352167426 44.6636565478 11.7690161126
N 33.907763272 44.6638437199 5.4785628603
N 17.835589086 41.5747792252 5.4785705942
N 24.3269945873 46.2645619143 16.660108223
N 27.4161267723 46.2645439491 0.5878774507
N 27.4161745484 39.9740109538 16.6600898335
N 24.3269755286 39.9739734642 0.5876013599
N 29.0168291437 51.155491441 7.0792248272
N 29.0167632678 35.0829887483 10.1683887169
N 22.726269511 51.1553553394 10.1684135812
N 22.7262547884 35.0831023727 7.0793197379
N 32.9508962786 42.5315939166 3.1452645866
N 18.7923999691 43.7069833669 3.1452022017
N 18.7921399049 42.5314944457 14.1024666076
N 32.9506597747 43.7068121282 14.1024235125
N 20.3929379044 50.1983923315 8.0362147657
N 20.392885292 36.0398888055 9.2115021336
N 31.3501884052 36.0400122025 8.0361520082
N 31.3501867046 50.1985686582 9.2115626938
N 25.2839555289 37.6406315642 15.7030248675
N 26.4593022876 37.6406461316 1.5445563648
N 25.2838834335 48.5979211138 1.5447135948
N 26.4593217395 48.5979087851 15.7032853492
N 25.2837992785 50.1985953749 3.1453604114
N 26.4592427589 36.0400585195 3.1452885264
N 25.2839114645 36.039837604 14.1024866287
N 26.4592219443 50.1983987097 14.1024577699
N 32.9508325691 37.6407159054 8.0360393048
N 18.7923264491 37.640648598 9.2113863912
N 18.7921828551 48.5977973684 8.0362186912
N 32.9507259852 48.5977987793 9.2115318031
N 20.3929898476 42.5315945617 15.7029678949
N 20.3929788712 43.7069972133 1.5444505984
N 31.3501803574 42.5316485608 1.5446317269
N 31.3501326331 43.7070110736 15.7032263103
N 24.3268951991 51.155320844 29.0168278708
N 27.4160635077 35.0829350804 29.0167217974
N 27.4160595787 51.155526026 22.7263451249
N 24.3268956959 35.0832023852 22.7263359147
N 29.016782599 41.5747518255 33.9077890504
N 29.0167804189 44.6638873876 17.8355432933
N 22.7263764295 44.6638280107 33.9077119463
N 22.7263335655 41.5746580877 17.835292705
N 33.9076447493 46.2645175774 24.32690423
N 17.8351738373 46.2643990546 27.4161327331
N 33.9077398945 39.9739983354 27.4159439191
N 17.8355339382 39.9740116954 24.3268115236
N 33.9076803761 41.5744804536 29.0167823472
N 17.8352167426 44.6636565478 29.0167161126
N 33.907763272 44.6638437199 22.7262628603
N 17.835589086 41.5747792252 22.7262705942
N 24.3269945873 46.2645619143 33.907808223
N 27.4161267723 46.2645439491 17.8355774507
N 27.4161745484 39.9740109538 33.9077898335
N 24.3269755286 39.9739734642 17.8353013599
N 29.0168291437 51.155491441 24.3269248272
N 29.0167632678 35.0829887483 27.4160887204
N 22.726269511 51.1553553394 27.4161135812
N 22.7262547884 35.0831023727 24.3270197379
N 32.9508962786 42.5315939166 20.3929645866
N 18.7923999691 43.7069833669 20.3929022017
N 18.7921399049 42.5314944457 31.3501666076
N 32.9506597747 43.7068121282 31.3501235125
N 20.3929379044 50.1983923315 25.2839147657
N 20.392885292 36.0398888055 26.4592021371
N 31.3501884052 36.0400122025 25.2838520047
N 31.3501867046 50.1985686582 26.4592626903
N 25.2839555289 37.6406315642 32.9507248675
N 26.4593022876 37.6406461316 18.7922563648
N 25.2838834335 48.5979211138 18.7924135914
N 26.4593217395 48.5979087851 32.9509853458
N 25.2837992785 50.1985953749 20.3930604114
N 26.4592427589 36.0400585195 20.3929885264
N 25.2839114645 36.039837604 31.3501866287
N 26.4592219443 50.1983987097 31.3501577699
N 32.9508325691 37.6407159054 25.2837393048
N 18.7923264491 37.640648598 26.4590863878
N 18.7921828551 48.5977973684 25.2839186912
N 32.9507259852 48.5977987793 26.4592318031
N 20.3929898476 42.5315945617 32.9506678915
N 20.3929788712 43.7069972133 18.7921505984
N 31.3501803574 42.5316485608 18.7923317269
N 31.3501326331 43.7070110736 32.9509263103
N 24.3268951991 68.403020844 11.7691278708
N 27.4160635077 52.3306350804 11.7690218009
N 27.4160595787 68.403226026 5.4786451249
N 24.3268956959 52.3309023852 5.4786359147
N 29.016782599 58.8224518255 16.6600890539
N 29.0167804189 61.9115873841 0.5878432933
N 22.7263764295 61.9115280107 16.6600119463
N 22.7263335655 58.8223580843 0.5875927084
N 33.9076447493 63.5122175774 7.07920423
N 17.8351738373 63.5120990546 10.1684327331
N 33.9077398945 57.2216983354 10.1682439191
N 17.8355339382 57.2217116954 7.0791115236
N 33.9076803761 58.8221804536 11.7690823472
N 17.8352167426 61.9113565478 11.7690161126
N 33.907763272 61.9115437199 5.4785628603
N 17.835589086 58.8224792252 5.4785705942
N 24.3269945873 63.5122619143 16.660108223
N 27.4161267723 63.5122439491 0.5878774507
N 27.4161745484 57.2217109572 16.6600898335
N 24.3269755286 57.2216734642 0.5876013599
N 29.0168291437 68.403191441 7.0792248272
N 29.0167632678 52.3306887483 10.1683887169
N 22.726269511 68.4030553394 10.1684135812
N 22.7262547884 52.3308023762 7.0793197379
N 32.9508962786 59.7792939201 3.1452645866
N 18.7923999691 60.9546833634 3.1452022017
N 18.7921399049 59.7791944457 14.1024666076
N 32.9506597747 60.9545121248 14.1024235125
N 20.3929379044 67.4460923315 8.0362147657
N 20.392885292 53.2875888055 9.2115021336
N 31.3501884052 53.2877122059 8.0361520082
N 31.3501867046 67.4462686582 9.2115626938
N 25.2839555289 54.8883315642 15.7030248675
N 26.4593022876 54.8883461316 1.5445563648
N 25.2838834335 65.8456211138 1.5447135948
N 26.4593217395 65.8456087886 15.7032853492
N 25.2837992785 67.4462953749 3.1453604114
N 26.4592427589 53.287758516 3.1452885264
N 25.2839114645 53.287537604 14.1024866287
N 26.4592219443 67.4460987097 14.1024577699
N 32.9508325691 54.8884159054 8.0360393048
N 18.7923264491 54.888348598 9.2113863912
N 18.7921828551 65.8454973684 8.0362186912
N 32.9507259852 65.8454987793 9.2115318031
N 20.3929898476 59.7792945617 15.7029678949
N 20.3929788712 60.9546972133 1.5444505984
N 31.3501803574 59.7793485608 1.5446317269
N 31.3501326331 60.9547110701 15.7032263103
N 24.3268951991 68.403020844 29.0168278708
N 27.4160635077 52.3306350804 29.0167217974
N 27.4160595787 68.403226026 22.7263451249
N 24.3268956959 52.3309023852 22.7263359147
N 29.016782599 58.8224518255 33.9077890504
N 29.0167804189 61.9115873841 17.8355432933
N 22.7263764295 61.9115280107 33.9077119463
N 22.7263335655 58.8223580843 17.835292705
N 33.9076447493 63.5122175774 24.32690423
N 17.8351738373 63.5120990546 27.4161327331
N 33.9077398945 57.2216983354 27.4159439191
N 17.8355339382 57.2217116954 24.3268115236
N 33.9076803761 58.8221804536 29.0167823472
N 17.8352167426 61.9113565478 29.0167161126
N 33.907763272 61.9115437199 22.7262628603
N 17.835589086 58.8224792252 22.7262705942
N 24.3269945873 63.5122619143 33.907808223
N 27.4161267723 63.5122439491 17.8355774507
N 27.4161745484 57.2217109572 33.9077898335
N 24.3269755286 57.2216734642 17.8353013599
N 29.0168291437 68.403191441 24.3269248272
N 29.0167632678 52.3306887483 27.4160887204
N 22.726269511 68.4030553394 27.4161135812
N 22.7262547884 52.3308023762 24.3270197379
N 32.9508962786 59.7792939201 20.3929645866
N 18.7923999691 60.9546833634 20.3929022017
N 18.7921399049 59.7791944457 31.3501666076
N 32.9506597747 60.9545121248 31.3501235125
N 20.3929379044 67.4460923315 25.2839147657
N 20.392885292 53.2875888055 26.4592021371
N 31.3501884052 53.2877122059 25.2838520047
N 31.3501867046 67.4462686582 26.4592626903
N 25.2839555289 54.8883315642 32.9507248675
N 26.4593022876 54.8883461316 18.7922563648
N 25.2838834335 65.8456211138 18.7924135914
N 26.4593217395 65.8456087886 32.9509853458
N 25.2837992785 67.4462953749 20.3930604114
N 26.4592427589 53.287758516 20.3929885264
N 25.2839114645 53.287537604 31.3501866287
N 26.4592219443 67.4460987097 31.3501577699
N 32.9508325691 54.8884159054 25.2837393048
N 18.7923264491 54.888348598 26.4590863878
N 18.7921828551 65.8454973684 25.2839186912
N 32.9507259852 65.8454987793 26.4592318031
N 20.3929898476 59.7792945617 32.9506678915
N 20.3929788712 60.9546972133 18.7921505984
N 31.3501803574 59.7793485608 18.7923317269
N 31.3501326331 60.9547110701 32.9509263103
H 6.6716332244 49.159829627 47.0658588449
H 10.5757207695 37.0785143537 47.0656727767
H 10.5757349505 49.1599807272 39.1727199978
H 6.6716827702 37.0787487983 39.1728042977
H 12.5704285441 41.1673041306 49.1599768637
H 12.5704280543 45.0713268415 37.0787747457
H 4.6773644313 45.0713445618 49.1598755059
H 4.677381065 41.1672588726 37.0785732546
H 14.6643990193 47.0657500291 41.1670451805
H 2.5830551251 47.0656684717 45.071259986
H 14.6645185562 39.1725507358 45.0710444587
H 2.5833669359 39.1726926119 41.1670109852
H 14.6644841091 41.1667988868 47.0657999371
H 2.58312572 45.0710440413 47.0656354734
H 14.6645040888 45.0711993741 39.1725836754
H 2.583445513 41.1673603374 39.1726747192
H 6.6718249464 47.0659196913 49.1600014935
H 10.5759346168 47.0658204584 37.0788231048
H 10.5760136975 39.1726850816 49.1599750458
H 6.6718499625 39.1727449069 37.0785740722
H 12.5703793399 49.1599678535 41.1671126328
H 12.5702881202 37.0785568072 45.0712204336
H 4.6771795808 49.159837078 45.0712642496
H 4.6772346631 37.0786488927 41.1673715864
H 15.2956846672 40.5360662277 38.4419490816
H 1.9521799069 45.7025410495 38.4418576619
H 1.9518668266 40.5359445004 47.7965759897
H 15.2955496867 45.7023200927 47.7964298499
H 3.9465435071 49.7908824345 40.5360962422
H 3.9464554507 36.4473559214 45.7024529207
H 13.3010771569 36.4474103689 40.5360242572
H 13.3012031617 49.7911654451 45.702526282
H 6.0407660333 38.4419934565 49.7908323886
H 11.2071994261 38.4418916019 36.4473793127
H 6.040636196 47.7965535953 36.4475291745
H 11.2071742513 47.7966177808 49.7912314693
H 6.0405525067 49.791059251 38.4420261685
H 11.2071294591 36.4474872764 38.4419632799
H 6.0406738409 36.4473044335 47.7965231738
H 11.2070393329 49.7908790022 47.7964958672
H 15.2955404971 38.4419863194 40.5359267766
H 1.9520876248 38.4419764192 45.7023213794
H 1.9518917254 47.796506133 40.5360649514
H 15.2955496936 47.7965130045 45.7024640213
H 3.9466374519 40.5361019684 49.790849481
H 3.9465518585 45.7025688839 36.4472222827
H 13.3011307455 40.5361169153 36.4474683626
H 13.3012327657 45.702573727 49.7911290042
H 6.4156690982 36.806436581 45.3277577008
H 10.4852318325 50.1147531944 43.7013314784
H 10.8322379156 36.8066091822 40.9108780903
H 6.4155201919 49.4320386271 40.9108350124
H 9.2059190083 41.2579519637 36.1235910313
H 10.83210229 45.3277501912 49.432146853
H 8.0417631231 44.9805302884 36.1236438989
H 6.4155040032 40.91085097 49.4318630455
H 1.6282175824 43.7015041003 41.2580364774
H 14.9363426738 45.327483214 45.3276439523
H 1.6280114517 42.5372534665 44.9804079125
H 14.9367233168 40.9109300542 40.9108148844
H 2.3111357829 40.9111439429 45.3277177862
H 15.6192622024 44.9805082907 43.7013591851
H 2.311144217 45.3277779255 40.9109560637
H 15.6197227505 41.2579967698 42.5370638005
H 6.4154665171 45.3275323596 36.806567191
H 10.4851448248 43.701457942 50.1150679339
H 10.8321745406 40.9109109782 36.8065935489
H 6.7626004539 42.5370937839 50.1148671707
H 9.205993715 36.1236448889 41.2580688203
H 10.8321720362 49.4318439868 45.3276250108
H 8.041824863 36.1233744726 44.9804315833
H 8.0417525675 50.1150862371 41.2579115282
H 15.0394141977 45.4304212649 36.7037957978
H 1.8612767078 41.491130764 35.0774763696
H 2.2082801036 45.430338438 49.534598836
H 15.3862347059 41.491169523 51.1611338294
H 0.5820670283 49.8817898351 44.7474325212
H 2.2085227753 36.7036178187 40.8080363368
H 15.0395464496 36.7039489746 45.4303046049
H 16.665582605 49.8816701982 41.4911140096
H 10.9350459394 36.703611137 49.5346742257
H 6.9956141213 35.0776140201 36.3568266213
H 10.2519856558 51.1611194759 36.3569127253
H 6.9957388566 51.1609675616 49.8818515233
H 10.9349734129 49.5348882111 36.7039569051
H 6.312734183 36.703937222 36.7036971858
H 10.2521152999 36.3567935782 51.16099166
H 6.3127370358 49.5346794863 49.5349343659
H 15.3865749512 35.0776614892 44.7473884189
H 1.861237114 35.0774420053 41.4910313345
H 2.2083142851 49.5346892347 45.4304316204
H 15.0392886207 49.5347451069 40.8081268355
H 0.5820423675 44.747335741 49.8817801523
H 2.2085733387 40.8081871438 36.7036899693
H 16.6656859912 44.7474596001 36.3567917741
H 15.0391353887 40.8081016332 49.5349123337
H 6.7624523479 36.1235244206 43.7014063507
H 9.2059416304 50.1147780311 44.9804007789
H 10.4852889845 36.1236651343 42.5371595425
H 6.7625908504 50.1149910333 42.5371108901
H 10.4851018676 42.5371587353 36.1236389247
H 9.2058826812 44.9805514582 50.1151475527
H 6.762567873 43.7013260074 36.1235314784
H 8.0417709121 41.2579047602 50.1148829282
H 1.628123779 44.9807193128 42.5371892775
H 15.6192907888 43.7012625704 44.9804659786
H 1.6282372585 41.2579255057 43.7013653736
H 15.6197188491 42.5371718573 41.257895443
H 15.3865310938 44.7474392237 35.0775559816
H 0.582223765 41.4910282713 36.3567891835
H 1.8613189612 44.7474262672 51.1609056527
H 16.6654324776 41.4910620975 49.881953571
H 1.8613144975 51.1609341666 44.7474387235
H 0.5821707594 36.3567258672 41.4908805723
H 16.6657690561 36.3568657495 44.7472490299
H 15.3865241706 51.1609544878 41.4911147823
H 10.2520341046 35.0774362377 49.8819805361
H 6.9957328924 36.3566504154 35.0775089126
H 10.252023618 49.881970698 35.0776989374
H 6.9958096032 49.8818841318 51.161124864
H 6.6716332244 49.159829627 64.3135588449
H 10.5757207695 37.0785143537 64.3133727767
H 10.5757349505 49.1599807272 56.4204199978
H 6.6716827702 37.0787487983 56.4205043011
H 12.5704285441 41.1673041306 66.4076768603
H 12.5704280543 45.0713268415 54.3264747457
H 4.6773644313 45.0713445618 66.4075755059
H 4.677381065 41.1672588726 54.3262732546
H 14.6643990193 47.0657500291 58.4147451771
H 2.5830551251 47.0656684717 62.318959986
H 14.6645185562 39.1725507358 62.3187444587
H 2.5833669359 39.1726926119 58.4147109818
H 14.6644841091 41.1667988868 64.3134999371
H 2.58312572 45.0710440413 64.3133354699
H 14.6645040888 45.0711993741 56.4202836754
H 2.583445513 41.1673603374 56.4203747192
H 6.6718249464 47.0659196913 66.4077014935
H 10.5759346168 47.0658204584 54.3265231048
H 10.5760136975 39.1726850816 66.4076750424
H 6.6718499625 39.1727449069 54.3262740687
H 12.5703793399 49.1599678535 58.4148126328
H 12.5702881202 37.0785568072 62.3189204336
H 4.6771795808 49.159837078 62.3189642496
H 4.6772346631 37.0786488927 58.4150715864
H 15.2956846672 40.5360662277 55.6896490816
H 1.9521799069 45.7025410495 55.6895576619
H 1.9518668266 40.5359445004 65.0442759897
H 15.2955496867 45.7023200927 65.0441298499
H 3.9465435071 49.7908824345 57.7837962456
H 3.9464554507 36.4473559214 62.9501529207
H 13.3010771569 36.4474103689 57.7837242572
H 13.3012031617 49.7911654451 62.950226282
H 6.0407660333 38.4419934565 67.0385323886
H 11.2071994261 38.4418916019 53.6950793127
H 6.040636196 47.7965535953 53.6952291745
H 11.2071742513 47.7966177808 67.0389314693
H 6.0405525067 49.791059251 55.6897261719
H 11.2071294591 36.4474872764 55.6896632764
H 6.0406738409 36.4473044335 65.0442231738
H 11.2070393329 49.7908790022 65.0441958638
H 15.2955404971 38.4419863194 57.7836267766
H 1.9520876248 38.4419764192 62.9500213828
H 1.9518917254 47.796506133 57.7837649549
H 15.2955496936 47.7965130045 62.9501640213
H 3.9466374519 40.5361019684 67.0385494776
H 3.9465518585 45.7025688839 53.6949222827
H 13.3011307455 40.5361169153 53.6951683591
H 13.3012327657 45.702573727 67.0388290042
H 6.4156690982 36.806436581 62.5754576974
H 10.4852318325 50.1147531944 60.9490314784
H 10.8322379156 36.8066091822 58.1585780903
H 6.4155201919 49.4320386271 58.1585350124
H 9.2059190083 41.2579519637 53.3712910313
H 10.83210229 45.3277501912 66.679846853
H 8.0417631231 44.9805302884 53.3713438989
H 6.4155040032 40.91085097 66.6795630455
H 1.6282175824 43.7015041003 58.5057364774
H 14.9363426738 45.327483214 62.5753439523
H 1.6280114517 42.5372534665 62.2281079091
H 14.9367233168 40.9109300542 58.1585148878
H 2.3111357829 40.9111439429 62.5754177862
H 15.6192622024 44.9805082907 60.9490591851
H 2.311144217 45.3277779255 58.1586560672
H 15.6197227505 41.2579967698 59.7847638005
H 6.4154665171 45.3275323596 54.054267191
H 10.4851448248 43.701457942 67.3627679339
H 10.8321745406 40.9109109782 54.0542935455
H 6.7626004539 42.5370937839 67.3625671707
H 9.205993715 36.1236448889 58.5057688203
H 10.8321720362 49.4318439868 62.5753250108
H 8.041824863 36.1233744726 62.2281315833
H 8.0417525675 50.1150862371 58.5056115282
H 15.0394141977 45.4304212649 53.9514957978
H 1.8612767078 41.491130764 52.3251763696
H 2.2082801036 45.430338438 66.782298836
H 15.3862347059 41.491169523 68.4088338294
H 0.5820670283 49.8817898351 61.9951325212
H 2.2085227753 36.7036178187 58.0557363368
H 15.0395464496 36.7039489746 62.6780046014
H 16.665582605 49.8816701982 58.7388140096
H 10.9350459394 36.703611137 66.7823742257
H 6.9956141213 35.0776140201 53.6045266213
H 10.2519856558 51.1611194759 53.6046127253
H 6.9957388566 51.1609675616 67.1295515233
H 10.9349734129 49.5348882111 53.9516569051
H 6.312734183 36.703937222 53.9513971858
H 10.2521152999 36.3567935782 68.40869166
H 6.3127370358 49.5346794863 66.7826343659
H 15.3865749512 35.0776614892 61.9950884189
H 1.861237114 35.0774420053 58.7387313345
H 2.2083142851 49.5346892347 62.6781316204
H 15.0392886207 49.5347451069 58.0558268355
H 0.5820423675 44.747335741 67.1294801488
H 2.2085733387 40.8081871438 53.9513899659
H 16.6656859912 44.7474596001 53.6044917741
H 15.0391353887 40.8081016332 66.7826123337
H 6.7624523479 36.1235244206 60.9491063507
H 9.2059416304 50.1147780311 62.2281007789
H 10.4852889845 36.1236651343 59.7848595425
H 6.7625908504 50.1149910333 59.7848108901
H 10.4851018676 42.5371587353 53.3713389281
H 9.2058826812 44.9805514582 67.3628475527
H 6.762567873 43.7013260074 53.3712314784
H 8.0417709121 41.2579047602 67.3625829282
H 1.628123779 44.9807193128 59.7848892775
H 15.6192907888 43.7012625704 62.2281659786
H 1.6282372585 41.2579255057 60.9490653736
H 15.6197188491 42.5371718573 58.5055954396
H 15.3865310938 44.7474392237 52.3252559816
H 0.582223765 41.4910282713 53.6044891835
H 1.8613189612 44.7474262672 68.4086056527
H 16.6654324776 41.4910620975 67.129653571
H 1.8613144975 51.1609341666 61.9951387235
H 0.5821707594 36.3567258672 58.7385805723
H 16.6657690561 36.3568657495 61.9949490299
H 15.3865241706 51.1609544878 58.7388147823
H 10.2520341046 35.0774362377 67.1296805361
H 6.9957328924 36.3566504154 52.3252089126
H 10.252023618 49.881970698 52.3253989339
H 6.9958096032 49.8818841318 68.408824864
H 6.6716332244 66.407529627 47.0658588449
H 10.5757207695 54.3262143537 47.0656727767
H 10.5757349505 66.4076807272 39.1727199978
H 6.6716827702 54.3264487983 39.1728042977
H 12.5704285441 58.4150041306 49.1599768637
H 12.5704280543 62.3190268415 37.0787747457
H 4.6773644313 62.3190445618 49.1598755059
H 4.677381065 58.4149588761 37.0785732546
H 14.6643990193 64.3134500291 41.1670451805
H 2.5830551251 64.3133684717 45.071259986
H 14.6645185562 56.4202507358 45.0710444587
H 2.5833669359 56.4203926119 41.1670109852
H 14.6644841091 58.4144988868 47.0657999371
H 2.58312572 62.3187440413 47.0656354734
H 14.6645040888 62.3188993741 39.1725836754
H 2.583445513 58.415060334 39.1726747192
H 6.6718249464 64.3136196913 49.1600014935
H 10.5759346168 64.3135204584 37.0788231048
H 10.5760136975 56.4203850816 49.1599750458
H 6.6718499625 56.4204449069 37.0785740722
H 12.5703793399 66.4076678535 41.1671126328
H 12.5702881202 54.3262568038 45.0712204336
H 4.6771795808 66.407537078 45.0712642496
H 4.6772346631 54.3263488927 41.1673715864
H 15.2956846672 57.7837662277 38.4419490816
H 1.9521799069 62.9502410495 38.4418576619
H 1.9518668266 57.7836445004 47.7965759897
H 15.2955496867 62.9500200927 47.7964298499
H 3.9465435071 67.0385824345 40.5360962422
H 3.9464554507 53.6950559214 45.7024529207
H 13.3010771569 53.6951103689 40.5360242572
H 13.3012031617 67.0388654451 45.702526282
H 6.0407660333 55.6896934565 49.7908323886
H 11.2071994261 55.6895916019 36.4473793127
H 6.040636196 65.0442535953 36.4475291745
H 11.2071742513 65.0443177808 49.7912314693
H 6.0405525067 67.038759251 38.4420261685
H 11.2071294591 53.6951872764 38.4419632799
H 6.0406738409 53.6950044301 47.7965231738
H 11.2070393329 67.0385790022 47.7964958672
H 15.2955404971 55.6896863194 40.5359267766
H 1.9520876248 55.6896764192 45.7023213794
H 1.9518917254 65.044206133 40.5360649514
H 15.2955496936 65.0442130045 45.7024640213
H 3.9466374519 57.783801965 49.790849481
H 3.9465518585 62.9502688839 36.4472222827
H 13.3011307455 57.7838169118 36.4474683626
H 13.3012327657 62.9502737236 49.7911290042
H 6.4156690982 54.054136581 45.3277577008
H 10.4852318325 67.3624531944 43.7013314784
H 10.8322379156 54.0543091822 40.9108780903
H 6.4155201919 66.6797386306 40.9108350124
H 9.2059190083 58.5056519637 36.1235910313
H 10.83210229 62.5754501877 49.432146853
H 8.0417631231 62.2282302884 36.1236438989
H 6.4155040032 58.15855097 49.4318630455
H 1.6282175824 60.9492041003 41.2580364774
H 14.9363426738 62.575183214 45.3276439523
H 1.6280114517 59.78495347 44.9804079125
H 14.9367233168 58.1586300542 40.9108148844
H 2.3111357829 58.1588439464 45.3277177862
H 15.6192622024 62.2282082907 43.7013591851
H 2.311144217 62.575477922 40.9109560637
H 15.6197227505 58.5056967698 42.5370638005
H 6.4154665171 62.5752323596 36.806567191
H 10.4851448248 60.949157942 50.1150679339
H 10.8321745406 58.1586109782 36.8065935489
H 6.7626004539 59.7847937839 50.1148671707
H 9.205993715 53.3713448924 41.2580688203
H 10.8321720362 66.6795439868 45.3276250108
H 8.041824863 53.3710744726 44.9804315833
H 8.0417525675 67.3627862371 41.2579115282
H 15.0394141977 62.6781212649 36.7037957978
H 1.8612767078 58.738830764 35.0774763696
H 2.2082801036 62.678038438 49.534598836
H 15.3862347059 58.738869523 51.1611338294
H 0.5820670283 67.1294898351 44.7474325212
H 2.2085227753 53.9513178187 40.8080363368
H 15.0395464496 53.9516489746 45.4303046049
H 16.665582605 67.1293701982 41.4911140096
H 10.9350459394 53.951311137 49.5346742257
H 6.9956141213 52.3253140201 36.3568266213
H 10.2519856558 68.4088194759 36.3569127253
H 6.9957388566 68.408667565 49.8818515233
H 10.9349734129 66.7825882111 36.7039569051
H 6.312734183 53.9516372186 36.7036971858
H 10.2521152999 53.6044935782 51.16099166
H 6.3127370358 66.7823794863 49.5349343659
H 15.3865749512 52.3253614857 44.7473884189
H 1.861237114 52.3251420019 41.4910313345
H 2.2083142851 66.7823892347 45.4304316204
H 15.0392886207 66.7824451069 40.8081268355
H 0.5820423675 61.995035741 49.8817801523
H 2.2085733387 58.0558871404 36.7036899693
H 16.6656859912 61.9951596001 36.3567917741
H 15.0391353887 58.0558016332 49.5349123337
H 6.7624523479 53.3712244206 43.7014063507
H 9.2059416304 67.3624780276 44.9804007789
H 10.4852889845 53.3713651343 42.5371595425
H 6.7625908504 67.3626910333 42.5371108901
H 10.4851018676 59.7848587353 36.1236389247
H 9.2058826812 62.2282514582 50.1151475527
H 6.762567873 60.9490260074 36.1235314784
H 8.0417709121 58.5056047602 50.1148829282
H 1.628123779 62.2284193128 42.5371892775
H 15.6192907888 60.9489625738 44.9804659786
H 1.6282372585 58.5056255057 43.7013653736
H 15.6197188491 59.7848718573 41.257895443
H 15.3865310938 61.9951392237 35.0775559816
H 0.582223765 58.7387282678 36.3567891835
H 1.8613189612 61.9951262672 51.1609056527
H 16.6654324776 58.7387620975 49.881953571
H 1.8613144975 68.4086341666 44.7474387235
H 0.5821707594 53.6044258672 41.4908805723
H 16.6657690561 53.6045657495 44.7472490299
H 15.3865241706 68.4086544878 41.4911147823
H 10.2520341046 52.3251362377 49.8819805361
H 6.9957328924 53.6043504154 35.0775089126
H 10.252023618 67.129670698 35.0776989374
H 6.9958096032 67.1295841352 51.161124864
H 6.6716332244 66.407529627 64.3135588449
H 10.5757207695 54.3262143537 64.3133727767
H 10.5757349505 66.4076807272 56.4204199978
H 6.6716827702 54.3264487983 56.4205043011
H 12.5704285441 58.4150041306 66.4076768603
H 12.5704280543 62.3190268415 54.3264747457
H 4.6773644313 62.3190445618 66.4075755059
H 4.677381065 58.4149588761 54.3262732546
H 14.6643990193 64.3134500291 58.4147451771
H 2.5830551251 64.3133684717 62.318959986
H 14.6645185562 56.4202507358 62.3187444587
H 2.5833669359 56.4203926119 58.4147109818
H 14.6644841091 58.4144988868 64.3134999371
H 2.58312572 62.3187440413 64.3133354699
H 14.6645040888 62.3188993741 56.4202836754
H 2.583445513 58.415060334 56.4203747192
H 6.6718249464 64.3136196913 66.4077014935
H 10.5759346168 64.3135204584 54.3265231048
H 10.5760136975 56.4203850816 66.4076750424
H 6.6718499625 56.4204449069 54.3262740687
H 12.5703793399 66.4076678535 58.4148126328
H 12.5702881202 54.3262568038 62.3189204336
H 4.6771795808 66.407537078 62.3189642496
H 4.6772346631 54.3263488927 58.4150715864
H 15.2956846672 57.7837662277 55.6896490816
H 1.9521799069 62.9502410495 55.6895576619
H 1.9518668266 57.7836445004 65.0442759897
H 15.2955496867 62.9500200927 65.0441298499
H 3.9465435071 67.0385824345 57.7837962456
H 3.9464554507 53.6950559214 62.9501529207
H 13.3010771569 53.6951103689 57.7837242572
H 13.3012031617 67.0388654451 62.950226282
H 6.0407660333 55.6896934565 67.0385323886
H 11.2071994261 55.6895916019 53.6950793127
H 6.040636196 65.0442535953 53.6952291745
H 11.2071742513 65.0443177808 67.0389314693
H 6.0405525067 67.038759251 55.6897261719
H 11.2071294591 53.6951872764 55.6896632764
H 6.0406738409 53.6950044301 65.0442231738
H 11.2070393329 67.0385790022 65.0441958638
H 15.2955404971 55.6896863194 57.7836267766
H 1.9520876248 55.6896764192 62.9500213828
H 1.9518917254 65.044206133 57.7837649549
H 15.2955496936 65.0442130045 62.9501640213
H 3.9466374519 57.783801965 67.0385494776
H 3.9465518585 62.9502688839 53.6949222827
H 13.3011307455 57.7838169118 53.6951683591
H 13.3012327657 62.9502737236 67.0388290042
H 6.4156690982 54.054136581 62.5754576974
H 10.4852318325 67.3624531944 60.9490314784
H 10.8322379156 54.0543091822 58.1585780903
H 6.4155201919 66.6797386306 58.1585350124
H 9.2059190083 58.5056519637 53.3712910313
H 10.83210229 62.5754501877 66.679846853
H 8.0417631231 62.2282302884 53.3713438989
H 6.4155040032 58.15855097 66.6795630455
H 1.6282175824 60.9492041003 58.5057364774
H 14.9363426738 62.575183214 62.5753439523
H 1.6280114517 59.78495347 62.2281079091
H 14.9367233168 58.1586300542 58.1585148878
H 2.3111357829 58.1588439464 62.5754177862
H 15.6192622024 62.2282082907 60.9490591851
H 2.311144217 62.575477922 58.1586560672
H 15.6197227505 58.5056967698 59.7847638005
H 6.4154665171 62.5752323596 54.054267191
H 10.4851448248 60.949157942 67.3627679339
H 10.8321745406 58.1586109782 54.0542935455
H 6.7626004539 59.7847937839 67.3625671707
H 9.205993715 53.3713448924 58.5057688203
H 10.8321720362 66.6795439868 62.5753250108
H 8.041824863 53.3710744726 62.2281315833
H 8.0417525675 67.3627862371 58.5056115282
H 15.0394141977 62.6781212649 53.9514957978
H 1.8612767078 58.738830764 52.3251763696
H 2.2082801036 62.678038438 66.782298836
H 15.3862347059 58.738869523 68.4088338294
H 0.5820670283 67.1294898351 61.9951325212
H 2.2085227753 53.9513178187 58.0557363368
H 15.0395464496 53.9516489746 62.6780046014
H 16.665582605 67.1293701982 58.7388140096
H 10.9350459394 53.951311137 66.7823742257
H 6.9956141213 52.3253140201 53.6045266213
H 10.2519856558 68.4088194759 53.6046127253
H 6.9957388566 68.408667565 67.1295515233
H 10.9349734129 66.7825882111 53.9516569051
H 6.312734183 53.9516372186 53.9513971858
H 10.2521152999 53.6044935782 68.40869166
H 6.3127370358 66.7823794863 66.7826343659
H 15.3865749512 52.3253614857 61.9950884189
H 1.861237114 52.3251420019 58.7387313345
H 2.2083142851 66.7823892347 62.6781316204
H 15.0392886207 66.7824451069 58.0558268355
H 0.5820423675 61.995035741 67.1294801488
H 2.2085733387 58.0558871404 53.9513899659
H 16.6656859912 61.9951596001 53.6044917741
H 15.0391353887 58.0558016332 66.7826123337
H 6.7624523479 53.3712244206 60.9491063507
H 9.2059416304 67.3624780276 62.2281007789
H 10.4852889845 53.3713651343 59.7848595425
H 6.7625908504 67.3626910333 59.7848108901
H 10.4851018676 59.7848587353 53.3713389281
H 9.2058826812 62.2282514582 67.3628475527
H 6.762567873 60.9490260074 53.3712314784
H 8.0417709121 58.5056047602 67.3625829282
H 1.628123779 62.2284193128 59.7848892775
H 15.6192907888 60.9489625738 62.2281659786
H 1.6282372585 58.5056255057 60.9490653736
H 15.6197188491 59.7848718573 58.5055954396
H 15.3865310938 61.9951392237 52.3252559816
H 0.582223765 58.7387282678 53.6044891835
H 1.8613189612 61.9951262672 68.4086056527
H 16.6654324776 58.7387620975 67.129653571
H 1.8613144975 68.4086341666 61.9951387235
H 0.5821707594 53.6044258672 58.7385805723
H 16.6657690561 53.6045657495 61.9949490299
H 15.3865241706 68.4086544878 58.7388147823
H 10.2520341046 52.3251362377 67.1296805361
H 6.9957328924 53.6043504154 52.3252089126
H 10.252023618 67.129670698 52.3253989339
H 6.9958096032 67.1295841352 68.408824864
H 23.9193332244 49.159829627 47.0658588449
H 27.8234207695 37.0785143537 47.0656727767
H 27.8234349505 49.1599807272 39.1727199978
H 23.9193827667 37.0787487983 39.1728042977
H 29.8181285441 41.1673041306 49.1599768637
H 29.8181280543 45.0713268415 37.0787747457
H 21.9250644313 45.0713445618 49.1598755059
H 21.925081065 41.1672588726 37.0785732546
H 31.9120990193 47.0657500291 41.1670451805
H 19.8307551286 47.0656684717 45.071259986
H 31.9122185562 39.1725507358 45.0710444587
H 19.8310669359 39.1726926119 41.1670109852
H 31.9121841091 41.1667988868 47.0657999371
H 19.8308257234 45.0710440413 47.0656354734
H 31.9122040888 45.0711993741 39.1725836754
H 19.8311455165 41.1673603374 39.1726747192
H 23.9195249464 47.0659196913 49.1600014935
H 27.8236346202 47.0658204584 37.0788231048
H 27.8237136975 39.1726850816 49.1599750458
H 23.9195499625 39.1727449069 37.0785740722
H 29.8180793433 49.1599678535 41.1671126328
H 29.8179881237 37.0785568072 45.0712204336
H 21.9248795808 49.159837078 45.0712642496
H 21.9249346631 37.0786488927 41.1673715864
H 32.5433846672 40.5360662277 38.4419490816
H 19.1998799069 45.7025410495 38.4418576619
H 19.1995668232 40.5359445004 47.7965759897
H 32.5432496867 45.7023200927 47.7964298499
H 21.1942435071 49.7908824345 40.5360962422
H 21.1941554507 36.4473559214 45.7024529207
H 30.5487771569 36.4474103689 40.5360242572
H 30.5489031617 49.7911654451 45.702526282
H 23.2884660333 38.4419934565 49.7908323886
H 28.4548994261 38.4418916019 36.4473793127
H 23.288336196 47.7965535953 36.4475291745
H 28.4548742513 47.7966177808 49.7912314693
H 23.2882525033 49.791059251 38.4420261685
H 28.4548294591 36.4474872764 38.4419632799
H 23.2883738409 36.4473044335 47.7965231738
H 28.4547393295 49.7908790022 47.7964958672
H 32.5432404971 38.4419863194 40.5359267766
H 19.1997876248 38.4419764192 45.7023213794
H 19.1995917254 47.796506133 40.5360649514
H 32.5432496936 47.7965130045 45.7024640213
H 21.1943374519 40.5361019684 49.790849481
H 21.1942518585 45.7025688839 36.4472222827
H 30.5488307455 40.5361169153 36.4474683626
H 30.5489327691 45.702573727 49.7911290042
H 23.6633690982 36.806436581 45.3277577008
H 27.7329318325 50.1147531944 43.7013314784
H 28.0799379156 36.8066091822 40.9108780903
H 23.6632201919 49.4320386271 40.9108350124
H 26.4536190083 41.2579519637 36.1235910313
H 28.07980229 45.3277501912 49.432146853
H 25.2894631231 44.9805302884 36.1236438989
H 23.6632040032 40.91085097 49.4318630455
H 18.8759175824 43.7015041003 41.2580364774
H 32.1840426738 45.327483214 45.3276439523
H 18.8757114517 42.5372534665 44.9804079125
H 32.1844233168 40.9109300542 40.9108148844
H 19.5588357795 40.9111439429 45.3277177862
H 32.8669622024 44.9805082907 43.7013591851
H 19.558844217 45.3277779255 40.9109560637
H 32.8674227505 41.2579967698 42.5370638005
H 23.6631665171 45.3275323596 36.806567191
H 27.7328448213 43.701457942 50.1150679339
H 28.0798745406 40.9109109782 36.8065935489
H 24.0103004573 42.5370937839 50.1148671707
H 26.453693715 36.1236448889 41.2580688203
H 28.0798720397 49.4318439868 45.3276250108
H 25.2895248664 36.1233744726 44.9804315833
H 25.2894525675 50.1150862371 41.2579115282
H 32.2871141977 45.4304212649 36.7037957978
H 19.1089767078 41.491130764 35.0774763696
H 19.4559801002 45.430338438 49.534598836
H 32.6339347059 41.491169523 51.1611338294
H 17.8297670283 49.8817898351 44.7474325212
H 19.4562227753 36.7036178187 40.8080363368
H 32.2872464496 36.7039489746 45.4303046049
H 33.913282605 49.8816701982 41.4911140096
H 28.182745936 36.703611137 49.5346742257
H 24.2433141213 35.0776140201 36.3568266213
H 27.4996856558 51.1611194759 36.3569127253
H 24.2434388566 51.1609675616 49.8818515233
H 28.1826734129 49.5348882111 36.7039569051
H 23.560434183 36.703937222 36.7036971858
H 27.4998152999 36.3567935782 51.16099166
H 23.5604370392 49.5346794863 49.5349343659
H 32.6342749512 35.0776614892 44.7473884189
H 19.108937114 35.0774420053 41.4910313345
H 19.4560142886 49.5346892347 45.4304316204
H 32.2869886241 49.5347451069 40.8081268355
H 17.8297423641 44.747335741 49.8817801523
H 19.4562733387 40.8081871438 36.7036899693
H 33.9133859946 44.7474596001 36.3567917741
H 32.2868353887 40.8081016332 49.5349123337
H 24.0101523479 36.1235244206 43.7014063507
H 26.4536416269 50.1147780311 44.9804007789
H 27.7329889879 36.1236651343 42.5371595425
H 24.0102908504 50.1149910333 42.5371108901
H 27.7328018676 42.5371587353 36.1236389247
H 26.4535826812 44.9805514582 50.1151475527
H 24.010267873 43.7013260074 36.1235314784
H 25.2894709121 41.2579047602 50.1148829282
H 18.875823779 44.9807193128 42.5371892775
H 32.8669907888 43.7012625704 44.9804659786
H 18.8759372585 41.2579255057 43.7013653736
H 32.8674188456 42.5371718573 41.257895443
H 32.6342310938 44.7474392237 35.0775559816
H 17.829923765 41.4910282713 36.3567891835
H 19.1090189612 44.7474262672 51.1609056527
H 33.9131324776 41.4910620975 49.881953571
H 19.1090144975 51.1609341666 44.7474387235
H 17.8298707594 36.3567258672 41.4908805723
H 33.9134690561 36.3568657495 44.7472490299
H 32.6342241706 51.1609544878 41.4911147823
H 27.4997341046 35.0774362377 49.8819805361
H 24.2434328924 36.3566504154 35.0775089126
H 27.499723618 49.881970698 35.0776989374
H 24.2435096032 49.8818841318 51.161124864
H 23.9193332244 49.159829627 64.3135588449
H 27.8234207695 37.0785143537 64.3133727767
H 27.8234349505 49.1599807272 56.4204199978
H 23.9193827667 37.0787487983 56.4205043011
H 29.8181285441 41.1673041306 66.4076768603
H 29.8181280543 45.0713268415 54.3264747457
H 21.9250644313 45.0713445618 66.4075755059
H 21.925081065 41.1672588726 54.3262732546
H 31.9120990193 47.0657500291 58.4147451771
H 19.8307551286 47.0656684717 62.318959986
H 31.9122185562 39.1725507358 62.3187444587
H 19.8310669359 39.1726926119 58.4147109818
H 31.9121841091 41.1667988868 64.3134999371
H 19.8308257234 45.0710440413 64.3133354699
H 31.9122040888 45.0711993741 56.4202836754
H 19.8311455165 41.1673603374 56.4203747192
H 23.9195249464 47.0659196913 66.4077014935
H 27.8236346202 47.0658204584 54.3265231048
H 27.8237136975 39.1726850816 66.4076750424
H 23.9195499625 39.1727449069 54.3262740687
H 29.8180793433 49.1599678535 58.4148126328
H 29.8179881237 37.0785568072 62.3189204336
H 21.9248795808 49.159837078 62.3189642496
H 21.9249346631 37.0786488927 58.4150715864
H 32.5433846672 40.5360662277 55.6896490816
H 19.1998799069 45.7025410495 55.6895576619
H 19.1995668232 40.5359445004 65.0442759897
H 32.5432496867 45.7023200927 65.0441298499
H 21.1942435071 49.7908824345 57.7837962456
H 21.1941554507 36.4473559214 62.9501529207
H 30.5487771569 36.4474103689 57.7837242572
H 30.5489031617 49.7911654451 62.950226282
H 23.2884660333 38.4419934565 67.0385323886
H 28.4548994261 38.4418916019 53.6950793127
H 23.288336196 47.7965535953 53.6952291745
H 28.4548742513 47.7966177808 67.0389314693
H 23.2882525033 49.791059251 55.6897261719
H 28.4548294591 36.4474872764 55.6896632764
H 23.2883738409 36.4473044335 65.0442231738
H 28.4547393295 49.7908790022 65.0441958638
H 32.5432404971 38.4419863194 57.7836267766
H 19.1997876248 38.4419764192 62.9500213828
H 19.1995917254 47.796506133 57.7837649549
H 32.5432496936 47.7965130045 62.9501640213
H 21.1943374519 40.5361019684 67.0385494776
H 21.1942518585 45.7025688839 53.6949222827
H 30.5488307455 40.5361169153 53.6951683591
H 30.5489327691 45.702573727 67.0388290042
H 23.6633690982 36.806436581 62.5754576974
H 27.7329318325 50.1147531944 60.9490314784
H 28.0799379156 36.8066091822 58.1585780903
H 23.6632201919 49.4320386271 58.1585350124
H 26.4536190083 41.2579519637 53.3712910313
H 28.07980229 45.3277501912 66.679846853
H 25.2894631231 44.9805302884 53.3713438989
H 23.6632040032 40.91085097 66.6795630455
H 18.8759175824 43.7015041003 58.5057364774
H 32.1840426738 45.327483214 62.5753439523
H 18.8757114517 42.5372534665 62.2281079091
H 32.1844233168 40.9109300542 58.1585148878
H 19.5588357795 40.9111439429 62.5754177862
H 32.8669622024 44.9805082907 60.9490591851
H 19.558844217 45.3277779255 58.1586560672
H 32.8674227505 41.2579967698 59.7847638005
H 23.6631665171 45.3275323596 54.054267191
H 27.7328448213 43.701457942 67.3627679339
H 28.0798745406 40.9109109782 54.0542935455
H 24.0103004573 42.5370937839 67.3625671707
H 26.453693715 36.1236448889 58.5057688203
H 28.0798720397 49.4318439868 62.5753250108
H 25.2895248664 36.1233744726 62.2281315833
H 25.2894525675 50.1150862371 58.5056115282
H 32.2871141977 45.4304212649 53.9514957978
H 19.1089767078 41.491130764 52.3251763696
H 19.4559801002 45.430338438 66.782298836
H 32.6339347059 41.491169523 68.4088338294
H 17.8297670283 49.8817898351 61.9951325212
H 19.4562227753 36.7036178187 58.0557363368
H 32.2872464496 36.7039489746 62.6780046014
H 33.913282605 49.8816701982 58.7388140096
H 28.182745936 36.703611137 66.7823742257
H 24.2433141213 35.0776140201 53.6045266213
H 27.4996856558 51.1611194759 53.6046127253
H 24.2434388566 51.1609675616 67.1295515233
H 28.1826734129 49.5348882111 53.9516569051
H 23.560434183 36.703937222 53.9513971858
H 27.4998152999 36.3567935782 68.40869166
H 23.5604370392 49.5346794863 66.7826343659
H 32.6342749512 35.0776614892 61.9950884189
H 19.108937114 35.0774420053 58.7387313345
H 19.4560142886 49.5346892347 62.6781316204
H 32.2869886241 49.5347451069 58.0558268355
H 17.8297423641 44.747335741 67.1294801488
H 19.4562733387 40.8081871438 53.9513899659
H 33.9133859946 44.7474596001 53.6044917741
H 32.2868353887 40.8081016332 66.7826123337
H 24.0101523479 36.1235244206 60.9491063507
H 26.4536416269 50.1147780311 62.2281007789
H 27.7329889879 36.1236651343 59.7848595425
H 24.0102908504 50.1149910333 59.7848108901
H 27.7328018676 42.5371587353 53.3713389281
H 26.4535826812 44.9805514582 67.3628475527
H 24.010267873 43.7013260074 53.3712314784
H 25.2894709121 41.2579047602 67.3625829282
H 18.875823779 44.9807193128 59.7848892775
H 32.8669907888 43.7012625704 62.2281659786
H 18.8759372585 41.2579255057 60.9490653736
H 32.8674188456 42.5371718573 58.5055954396
H 32.6342310938 44.7474392237 52.3252559816
H 17.829923765 41.4910282713 53.6044891835
H 19.1090189612 44.7474262672 68.4086056527
H 33.9131324776 41.4910620975 67.129653571
H 19.1090144975 51.1609341666 61.9951387235
H 17.8298707594 36.3567258672 58.7385805723
H 33.9134690561 36.3568657495 61.9949490299
H 32.6342241706 51.1609544878 58.7388147823
H 27.4997341046 35.0774362377 67.1296805361
H 24.2434328924 36.3566504154 52.3252089126
H 27.499723618 49.881970698 52.3253989339
H 24.2435096032 49.8818841318 68.408824864
H 23.9193332244 66.407529627 47.0658588449
H 27.8234207695 54.3262143537 47.0656727767
H 27.8234349505 66.4076807272 39.1727199978
H 23.9193827667 54.3264487983 39.1728042977
H 29.8181285441 58.4150041306 49.1599768637
H 29.8181280543 62.3190268415 37.0787747457
H 21.9250644313 62.3190445618 49.1598755059
H 21.925081065 58.4149588761 37.0785732546
H 31.9120990193 64.3134500291 41.1670451805
H 19.8307551286 64.3133684717 45.071259986
H 31.9122185562 56.4202507358 45.0710444587
H 19.8310669359 56.4203926119 41.1670109852
H 31.9121841091 58.4144988868 47.0657999371
H 19.8308257234 62.3187440413 47.0656354734
H 31.9122040888 62.3188993741 39.1725836754
H 19.8311455165 58.415060334 39.1726747192
H 23.9195249464 64.3136196913 49.1600014935
H 27.8236346202 64.3135204584 37.0788231048
H 27.8237136975 56.4203850816 49.1599750458
H 23.9195499625 56.4204449069 37.0785740722
H 29.8180793433 66.4076678535 41.1671126328
H 29.8179881237 54.3262568038 45.0712204336
H 21.9248795808 66.407537078 45.0712642496
H 21.9249346631 54.3263488927 41.1673715864
H 32.5433846672 57.7837662277 38.4419490816
H 19.1998799069 62.9502410495 38.4418576619
H 19.1995668232 57.7836445004 47.7965759897
H 32.5432496867 62.9500200927 47.7964298499
H 21.1942435071 67.0385824345 40.5360962422
H 21.1941554507 53.6950559214 45.7024529207
H 30.5487771569 53.6951103689 40.5360242572
H 30.5489031617 67.0388654451 45.702526282
H 23.2884660333 55.6896934565 49.7908323886
H 28.4548994261 55.6895916019 36.4473793127
H 23.288336196 65.0442535953 36.4475291745
H 28.4548742513 65.0443177808 49.7912314693
H 23.2882525033 67.038759251 38.4420261685
H 28.4548294591 53.6951872764 38.4419632799
H 23.2883738409 53.6950044301 47.7965231738
H 28.4547393295 67.0385790022 47.7964958672
H 32.5432404971 55.6896863194 40.5359267766
H 19.1997876248 55.6896764192 45.7023213794
H 19.1995917254 65.044206133 40.5360649514
H 32.5432496936 65.0442130045 45.7024640213
H 21.1943374519 57.783801965 49.790849481
H 21.1942518585 62.9502688839 36.4472222827
H 30.5488307455 57.7838169118 36.4474683626
H 30.5489327691 62.9502737236 49.7911290042
H 23.6633690982 54.054136581 45.3277577008
H 27.7329318325 67.3624531944 43.7013314784
H 28.0799379156 54.0543091822 40.9108780903
H 23.6632201919 66.6797386306 40.9108350124
H 26.4536190083 58.5056519637 36.1235910313
H 28.07980229 62.5754501877 49.432146853
H 25.2894631231 62.2282302884 36.1236438989
H 23.6632040032 58.15855097 49.4318630455
H 18.8759175824 60.9492041003 41.2580364774
H 32.1840426738 62.575183214 45.3276439523
H 18.8757114517 59.78495347 44.9804079125
H 32.1844233168 58.1586300542 40.9108148844
H 19.5588357795 58.1588439464 45.3277177862
H 32.8669622024 62.2282082907 43.7013591851
H 19.558844217 62.575477922 40.9109560637
H 32.8674227505 58.5056967698 42.5370638005
H 23.6631665171 62.5752323596 36.806567191
H 27.7328448213 60.949157942 50.1150679339
H 28.0798745406 58.1586109782 36.8065935489
H 24.0103004573 59.7847937839 50.1148671707
H 26.453693715 53.3713448924 41.2580688203
H 28.0798720397 66.6795439868 45.3276250108
H 25.2895248664 53.3710744726 44.9804315833
H 25.2894525675 67.3627862371 41.2579115282
H 32.2871141977 62.6781212649 36.7037957978
H 19.1089767078 58.738830764 35.0774763696
H 19.4559801002 62.678038438 49.534598836
H 32.6339347059 58.738869523 51.1611338294
H 17.8297670283 67.1294898351 44.7474325212
H 19.4562227753 53.9513178187 40.8080363368
H 32.2872464496 53.9516489746 45.4303046049
H 33.913282605 67.1293701982 41.4911140096
H 28.182745936 53.951311137 49.5346742257
H 24.2433141213 52.3253140201 36.3568266213
H 27.4996856558 68.4088194759 36.3569127253
H 24.2434388566 68.408667565 49.8818515233
H 28.1826734129 66.7825882111 36.7039569051
H 23.560434183 53.9516372186 36.7036971858
H 27.4998152999 53.6044935782 51.16099166
H 23.5604370392 66.7823794863 49.5349343659
H 32.6342749512 52.3253614857 44.7473884189
H 19.108937114 52.3251420019 41.4910313345
H 19.4560142886 66.7823892347 45.4304316204
H 32.2869886241 66.7824451069 40.8081268355
H 17.8297423641 61.995035741 49.8817801523
H 19.4562733387 58.0558871404 36.7036899693
H 33.9133859946 61.9951596001 36.3567917741
H 32.2868353887 58.0558016332 49.5349123337
H 24.0101523479 53.3712244206 43.7014063507
H 26.4536416269 67.3624780276 44.9804007789
H 27.7329889879 53.3713651343 42.5371595425
H 24.0102908504 67.3626910333 42.5371108901
H 27.7328018676 59.7848587353 36.1236389247
H 26.4535826812 62.2282514582 50.1151475527
H 24.010267873 60.9490260074 36.1235314784
H 25.2894709121 58.5056047602 50.1148829282
H 18.875823779 62.2284193128 42.5371892775
H 32.8669907888 60.9489625738 44.9804659786
H 18.8759372585 58.5056255057 43.7013653736
H 32.8674188456 59.7848718573 41.257895443
H 32.6342310938 61.9951392237 35.0775559816
H 17.829923765 58.7387282678 36.3567891835
H 19.1090189612 61.9951262672 51.1609056527
H 33.9131324776 58.7387620975 49.881953571
H 19.1090144975 68.4086341666 44.7474387235
H 17.8298707594 53.6044258672 41.4908805723
H 33.9134690561 53.6045657495 44.7472490299
H 32.6342241706 68.4086544878 41.4911147823
H 27.4997341046 52.3251362377 49.8819805361
H 24.2434328924 53.6043504154 35.0775089126
H 27.499723618 67.129670698 35.0776989374
H 24.2435096032 67.1295841352 51.161124864
H 23.9193332244 66.407529627 64.3135588449
H 27.8234207695 54.3262143537 64.3133727767
H 27.8234349505 66.4076807272 56.4204199978
H 23.9193827667 54.3264487983 56.4205043011
H 29.8181285441 58.4150041306 66.4076768603
H 29.8181280543 62.3190268415 54.3264747457
H 21.9250644313 62.3190445618 66.4075755059
H 21.925081065 58.4149588761 54.3262732546
H 31.9120990193 64.3134500291 58.4147451771
H 19.8307551286 64.3133684717 62.318959986
H 31.9122185562 56.4202507358 62.3187444587
H 19.8310669359 56.4203926119 58.4147109818
H 31.9121841091 58.4144988868 64.3134999371
H 19.8308257234 62.3187440413 64.3133354699
H 31.9122040888 62.3188993741 56.4202836754
H 19.8311455165 58.415060334 56.4203747192
H 23.9195249464 64.3136196913 66.4077014935
H 27.8236346202 64.3135204584 54.3265231048
H 27.8237136975 56.4203850816 66.4076750424
H 23.9195499625 56.4204449069 54.3262740687
H 29.8180793433 66.4076678535 58.4148126328
H 29.8179881237 54.3262568038 62.3189204336
H 21.9248795808 66.407537078 62.3189642496
H 21.9249346631 54.3263488927 58.4150715864
H 32.5433846672 57.7837662277 55.6896490816
H 19.1998799069 62.9502410495 55.6895576619
H 19.1995668232 57.7836445004 65.0442759897
H 32.5432496867 62.9500200927 65.0441298499
H 21.1942435071 67.0385824345 57.7837962456
H 21.1941554507 53.6950559214 62.9501529207
H 30.5487771569 53.6951103689 57.7837242572
H 30.5489031617 67.0388654451 62.950226282
H 23.2884660333 55.6896934565 67.0385323886
H 28.4548994261 55.6895916019 53.6950793127
H 23.288336196 65.0442535953 53.6952291745
H 28.4548742513 65.0443177808 67.0389314693
H 23.2882525033 67.038759251 55.6897261719
H 28.4548294591 53.6951872764 55.6896632764
H 23.2883738409 53.6950044301 65.0442231738
H 28.4547393295 67.0385790022 65.0441958638
H 32.5432404971 55.6896863194 57.7836267766
H 19.1997876248 55.6896764192 62.9500213828
H 19.1995917254 65.044206133 57.7837649549
H 32.5432496936 65.0442130045 62.9501640213
H 21.1943374519 57.783801965 67.0385494776
H 21.1942518585 62.9502688839 53.6949222827
H 30.5488307455 57.7838169118 53.6951683591
H 30.5489327691 62.9502737236 67.0388290042
H 23.6633690982 54.054136581 62.5754576974
H 27.7329318325 67.3624531944 60.9490314784
H 28.0799379156 54.0543091822 58.1585780903
H 23.6632201919 66.6797386306 58.1585350124
H 26.4536190083 58.5056519637 53.3712910313
H 28.07980229 62.5754501877 66.679846853
H 25.2894631231 62.2282302884 53.3713438989
H 23.6632040032 58.15855097 66.6795630455
H 18.8759175824 60.9492041003 58.5057364774
H 32.1840426738 62.575183214 62.5753439523
H 18.8757114517 59.78495347 62.2281079091
H 32.1844233168 58.1586300542 58.1585148878
H 19.5588357795 58.1588439464 62.5754177862
H 32.8669622024 62.2282082907 60.9490591851
H 19.558844217 62.575477922 58.1586560672
H 32.8674227505 58.5056967698 59.7847638005
H 23.6631665171 62.5752323596 54.054267191
H 27.7328448213 60.949157942 67.3627679339
H 28.0798745406 58.1586109782 54.0542935455
H 24.0103004573 59.7847937839 67.3625671707
H 26.453693715 53.3713448924 58.5057688203
H 28.0798720397 66.6795439868 62.5753250108
H 25.2895248664 53.3710744726 62.2281315833
H 25.2894525675 67.3627862371 58.5056115282
H 32.2871141977 62.6781212649 53.9514957978
H 19.1089767078 58.738830764 52.3251763696
H 19.4559801002 62.678038438 66.782298836
H 32.6339347059 58.738869523 68.4088338294
H 17.8297670283 67.1294898351 61.9951325212
H 19.4562227753 53.9513178187 58.0557363368
H 32.2872464496 53.9516489746 62.6780046014
H 33.913282605 67.1293701982 58.7388140096
H 28.182745936 53.951311137 66.7823742257
H 24.2433141213 52.3253140201 53.6045266213
H 27.4996856558 68.4088194759 53.6046127253
H 24.2434388566 68.408667565 67.1295515233
H 28.1826734129 66.7825882111 53.9516569051
H 23.560434183 53.9516372186 53.9513971858
H 27.4998152999 53.6044935782 68.40869166
H 23.5604370392 66.7823794863 66.7826343659
H 32.6342749512 52.3253614857 61.9950884189
H 19.108937114 52.3251420019 58.7387313345
H 19.4560142886 66.7823892347 62.6781316204
H 32.2869886241 66.7824451069 58.0558268355
H 17.8297423641 61.995035741 67.1294801488
H 19.4562733387 58.0558871404 53.9513899659
H 33.9133859946 61.9951596001 53.6044917741
H 32.2868353887 58.0558016332 66.7826123337
H 24.0101523479 53.3712244206 60.9491063507
H 26.4536416269 67.3624780276 62.2281007789
H 27.7329889879 53.3713651343 59.7848595425
H 24.0102908504 67.3626910333 59.7848108901
H 27.7328018676 59.7848587353 53.3713389281
H 26.4535826812 62.2282514582 67.3628475527
H 24.010267873 60.9490260074 53.3712314784
H 25.2894709121 58.5056047602 67.3625829282
H 18.875823779 62.2284193128 59.7848892775
H 32.8669907888 60.9489625738 62.2281659786
H 18.8759372585 58.5056255057 60.9490653736
H 32.8674188456 59.7848718573 58.5055954396
H 32.6342310938 61.9951392237 52.3252559816
H 17.829923765 58.7387282678 53.6044891835
H 19.1090189612 61.9951262672 68.4086056527
H 33.9131324776 58.7387620975 67.129653571
H 19.1090144975 68.4086341666 61.9951387235
H 17.8298707594 53.6044258672 58.7385805723
H 33.9134690561 53.6045657495 61.9949490299
H 32.6342241706 68.4086544878 58.7388147823
H 27.4997341046 52.3251362377 67.1296805361
H 24.2434328924 53.6043504154 52.3252089126
H 27.499723618 67.129670698 52.3253989339
H 24.2435096032 67.1295841352 68.408824864
C 6.5036575671 34.615808667 45.2394318807
C 10.7439990929 51.6224738705 45.2393677986
C 10.744038804 34.6159870669 40.9990837008
C 6.5036289463 51.6226719466 40.9990861397
C 10.74402424 40.9991147122 34.6159611436
C 10.7439972439 45.2394828615 51.6227806381
C 6.5037191035 45.2394424536 34.6159345476
C 6.5036800133 40.9990293982 51.6225080244
C 0.1204916595 45.239484024 40.9990494193
C 17.1270004781 45.2393046479 45.2393990204
C 0.1204797896 40.9990418027 45.2393429068
C 17.1273768333 40.9991243157 40.9989795592
C 15.1275890349 43.2397962347 36.6156198705
C 2.1202474358 42.9988051508 36.6155122552
C 2.1201254083 43.2397171747 49.622861909
C 15.1274042051 42.9987333865 49.622987148
C 2.120141121 49.6228365445 43.2397966452
C 2.1201785657 36.6155266605 42.9986633057
C 15.1275932537 36.6156508508 43.2396691122
C 15.1274957628 49.6229013062 42.9987629732
C 8.7444019368 36.6154940658 49.622922138
C 8.5033814214 36.6156272042 36.6155932332
C 8.7443223421 49.6230196875 36.6157183894
C 8.5033962544 49.6229011199 49.623019177
C 6.3922740834 49.934671166 46.3368446655
C 10.8551832622 36.303638102 46.3367395787
C 10.8551965877 49.9348464096 39.9016710437
C 6.3923053638 36.3038588208 39.9017592933
C 11.8414538758 40.8878696999 49.9348297621
C 11.841441523 45.3507389917 36.3039202295
C 5.4063302481 45.3507369806 49.9347682361
C 5.4063159636 40.887824028 36.3036826493
C 15.4392810145 46.3367819598 40.887688637
C 1.8081881664 46.3366816127 45.3506516045
C 15.4393750903 39.9015136308 45.350527421
C 1.808525973 39.9017049665 40.8876555456
C 15.4393321505 40.8875385648 46.3367510691
C 1.8082092224 45.3505171241 46.3367360361
C 15.4393548208 45.3506530153 39.9015663846
C 1.8085546973 40.8879003387 39.9016009973
C 6.3924245351 46.3369068193 49.9348310591
C 10.8553206815 46.336862917 36.3039418857
C 10.8553638007 39.9016893193 49.9348308694
C 6.3924287021 39.9016870047 36.3036874408
C 11.8413873963 49.9348276475 40.887746848
C 11.8413311722 36.3036698516 45.3506333564
C 5.406168413 49.9346922565 45.3506859032
C 5.4061965233 36.3038000303 40.887907224
C 15.0162935834 41.310934311 37.7129792392
C 2.2315447259 44.9276797136 37.7128732935
C 2.2313507065 41.3108520808 48.5254811118
C 15.0161642291 44.9275178888 48.5254759444
C 3.2175306766 49.5115270465 41.3109437213
C 3.2175211248 36.7267836531 44.9275527533
C 14.0300768275 36.7268484113 41.3108641646
C 14.0301248382 49.5117071574 44.9276334759
C 6.8155915837 37.7129430811 49.5115212617
C 10.4322905244 37.7129712397 36.7268247164
C 6.8154869695 48.5255515066 36.726944957
C 10.4322703619 48.5255271494 49.5117659686
C 6.8154381861 49.5116780915 37.713066209
C 10.4322561498 36.7268840002 37.7129901535
C 6.8155662985 36.7267534282 48.5254709322
C 10.4322049448 49.5115483405 48.5255345452
C 15.0161900903 37.713004683 41.3108021108
C 2.2314608779 37.7129694528 44.9274822136
C 2.2313505133 48.5254365886 41.3109478194
C 15.0161764371 48.5255096878 44.9276134376
C 3.2175830302 41.310913631 49.5115165116
C 3.2176312755 44.9276801551 36.7266946308
C 14.0301254177 41.3109718868 36.7268791777
C 14.0301186394 44.9276413375 49.5116919725
C 6.9535851363 35.9890083907 44.7895685385
C 10.294158352 50.249251173 44.7895015553
C 10.2942094121 35.9891931411 41.4489832287
C 6.9535491266 50.2494722091 41.4489166733
C 10.2941215247 41.4489679576 35.9891631888
C 10.2940989613 44.7896296506 50.2495689377
C 6.9535665019 44.7895249432 35.9891394525
C 6.9535661363 41.4488976387 50.2493018605
C 1.4937162647 44.7896927461 41.4489949606
C 15.7537604052 44.7894625755 44.7895377169
C 1.4936826351 41.4490278037 44.7895237842
C 15.7541635874 41.4489833771 41.4488696043
C 15.5774896736 44.6130002944 36.1657597122
C 1.6703957979 41.6255701935 36.16569048
C 1.6702599688 44.612927823 50.072726669
C 15.5772292643 41.6255371159 50.0729307852
C 1.6702779754 50.0727483321 44.6129926433
C 1.6703427681 36.1656510517 41.625441843
C 15.5775565463 36.1658497521 44.6128766732
C 15.577398892 50.0727469454 41.6255586376
C 10.117614503 36.1656515277 50.0728314557
C 7.1301471333 36.1657751455 36.165727497
C 10.1175436564 50.0729345176 36.1658922849
C 7.1301936987 50.0727913065 50.0729098016
C 6.5036575671 34.615808667 62.4871318773
C 10.7439990929 51.6224738705 62.4870677986
C 10.744038804 34.6159870669 58.2467837008
C 6.5036289463 51.6226719466 58.2467861397
C 10.74402424 40.9991147122 51.863661147
C 10.7439972439 45.2394828615 68.8704806416
C 6.5037191035 45.2394424536 51.8636345476
C 6.5036800133 40.9990293982 68.8702080244
C 0.1204916595 45.239484024 58.2467494193
C 17.1270004781 45.2393046479 62.4870990204
C 0.1204797896 40.9990418027 62.4870429068
C 17.1273768333 40.9991243157 58.2466795558
C 15.1275890349 43.2397962347 53.8633198705
C 2.1202474358 42.9988051508 53.8632122552
C 2.1201254083 43.2397171747 66.870561909
C 15.1274042051 42.9987333865 66.870687148
C 2.120141121 49.6228365445 60.4874966452
C 2.1201785657 36.6155266605 60.2463633057
C 15.1275932537 36.6156508508 60.4873691122
C 15.1274957628 49.6229013062 60.2464629732
C 8.7444019368 36.6154940658 66.8706221414
C 8.5033814214 36.6156272042 53.8632932366
C 8.7443223421 49.6230196875 53.8634183894
C 8.5033962544 49.6229011199 66.870719177
C 6.3922740834 49.934671166 63.5845446655
C 10.8551832622 36.303638102 63.5844395753
C 10.8551965877 49.9348464096 57.1493710437
C 6.3923053638 36.3038588208 57.1494592933
C 11.8414538758 40.8878696999 67.1825297621
C 11.841441523 45.3507389917 53.5516202295
C 5.4063302481 45.3507369806 67.1824682361
C 5.4063159636 40.887824028 53.5513826493
C 15.4392810145 46.3367819598 58.135388637
C 1.8081881664 46.3366816127 62.598351601
C 15.4393750903 39.9015136308 62.598227421
C 1.808525973 39.9017049665 58.1353555456
C 15.4393321505 40.8875385648 63.5844510657
C 1.8082092224 45.3505171241 63.5844360361
C 15.4393548208 45.3506530153 57.1492663812
C 1.8085546973 40.8879003387 57.1493009939
C 6.3924245351 46.3369068193 67.1825310591
C 10.8553206815 46.336862917 53.5516418857
C 10.8553638007 39.9016893193 67.1825308694
C 6.3924287021 39.9016870047 53.5513874408
C 11.8413873963 49.9348276475 58.135446848
C 11.8413311722 36.3036698516 62.5983333564
C 5.406168413 49.9346922565 62.5983859032
C 5.4061965233 36.3038000303 58.135607224
C 15.0162935834 41.310934311 54.9606792357
C 2.2315447259 44.9276797136 54.9605732935
C 2.2313507065 41.3108520808 65.7731811118
C 15.0161642291 44.9275178888 65.7731759444
C 3.2175306766 49.5115270465 58.5586437213
C 3.2175211248 36.7267836531 62.1752527533
C 14.0300768275 36.7268484113 58.5585641646
C 14.0301248382 49.5117071574 62.1753334759
C 6.8155915837 37.7129430811 66.7592212617
C 10.4322905244 37.7129712397 53.9745247164
C 6.8154869695 48.5255515066 53.974644957
C 10.4322703619 48.5255271494 66.7594659686
C 6.8154381861 49.5116780915 54.9607662124
C 10.4322561498 36.7268840002 54.9606901535
C 6.8155662985 36.7267534282 65.7731709288
C 10.4322049448 49.5115483405 65.7732345452
C 15.0161900903 37.713004683 58.5585021108
C 2.2314608779 37.7129694528 62.1751822136
C 2.2313505133 48.5254365886 58.5586478194
C 15.0161764371 48.5255096878 62.1753134341
C 3.2175830302 41.310913631 66.7592165116
C 3.2176312755 44.9276801551 53.9743946308
C 14.0301254177 41.3109718868 53.9745791777
C 14.0301186394 44.9276413375 66.7593919725
C 6.9535851363 35.9890083907 62.037268542
C 10.294158352 50.249251173 62.0372015553
C 10.2942094121 35.9891931411 58.6966832253
C 6.9535491266 50.2494722091 58.6966166733
C 10.2941215247 41.4489679576 53.2368631888
C 10.2940989613 44.7896296506 67.4972689377
C 6.9535665019 44.7895249432 53.2368394525
C 6.9535661363 41.4488976387 67.4970018605
C 1.4937162647 44.7896927461 58.6966949606
C 15.7537604052 44.7894625755 62.0372377169
C 1.4936826351 41.4490278037 62.0372237842
C 15.7541635874 41.4489833771 58.6965696043
C 15.5774896736 44.6130002944 53.4134597088
C 1.6703957979 41.6255701935 53.41339048
C 1.6702599688 44.612927823 67.320426669
C 15.5772292643 41.6255371159 67.3206307886
C 1.6702779754 50.0727483321 61.8606926433
C 1.6703427681 36.1656510517 58.873141843
C 15.5775565463 36.1658497521 61.8605766732
C 15.577398892 50.0727469454 58.8732586376
C 10.117614503 36.1656515277 67.3205314591
C 7.1301471333 36.1657751455 53.4134274935
C 10.1175436564 50.0729345176 53.4135922884
C 7.1301936987 50.0727913065 67.3206098016
C 6.5036575671 51.863508667 45.2394318807
C 10.7439990929 68.8701738705 45.2393677986
C 10.744038804 51.8636870669 40.9990837008
C 6.5036289463 68.8703719466 40.9990861397
C 10.74402424 58.2468147122 34.6159611436
C 10.7439972439 62.4871828615 51.6227806381
C 6.5037191035 62.4871424536 34.6159345476
C 6.5036800133 58.2467293982 51.6225080244
C 0.1204916595 62.487184024 40.9990494193
C 17.1270004781 62.4870046479 45.2393990204
C 0.1204797896 58.2467418027 45.2393429068
C 17.1273768333 58.2468243157 40.9989795592
C 15.1275890349 60.4874962347 36.6156198705
C 2.1202474358 60.2465051508 36.6155122552
C 2.1201254083 60.4874171747 49.622861909
C 15.1274042051 60.24643339 49.622987148
C 2.120141121 66.8705365445 43.2397966452
C 2.1201785657 53.8632266605 42.9986633057
C 15.1275932537 53.8633508508 43.2396691122
C 15.1274957628 66.8706013097 42.9987629732
C 8.7444019368 53.8631940658 49.622922138
C 8.5033814214 53.8633272042 36.6155932332
C 8.7443223421 66.8707196875 36.6157183894
C 8.5033962544 66.8706011199 49.623019177
C 6.3922740834 67.182371166 46.3368446655
C 10.8551832622 53.5513381054 46.3367395787
C 10.8551965877 67.1825464096 39.9016710437
C 6.3923053638 53.5515588243 39.9017592933
C 11.8414538758 58.1355696999 49.9348297621
C 11.841441523 62.5984389917 36.3039202295
C 5.4063302481 62.5984369806 49.9347682361
C 5.4063159636 58.1355240245 36.3036826493
C 15.4392810145 63.5844819598 40.887688637
C 1.8081881664 63.5843816092 45.3506516045
C 15.4393750903 57.1492136308 45.350527421
C 1.808525973 57.1494049665 40.8876555456
C 15.4393321505 58.1352385648 46.3367510691
C 1.8082092224 62.5982171241 46.3367360361
C 15.4393548208 62.5983530153 39.9015663846
C 1.8085546973 58.1356003387 39.9016009973
C 6.3924245351 63.5846068193 49.9348310591
C 10.8553206815 63.584562917 36.3039418857
C 10.8553638007 57.1493893193 49.9348308694
C 6.3924287021 57.1493870047 36.3036874408
C 11.8413873963 67.1825276475 40.887746848
C 11.8413311722 53.5513698516 45.3506333564
C 5.406168413 67.1823922565 45.3506859032
C 5.4061965233 53.5515000303 40.887907224
C 15.0162935834 58.558634311 37.7129792392
C 2.2315447259 62.1753797136 37.7128732935
C 2.2313507065 58.5585520808 48.5254811118
C 15.0161642291 62.1752178888 48.5254759444
C 3.2175306766 66.7592270465 41.3109437213
C 3.2175211248 53.9744836531 44.9275527533
C 14.0300768275 53.9745484113 41.3108641646
C 14.0301248382 66.7594071574 44.9276334759
C 6.8155915837 54.9606430811 49.5115212617
C 10.4322905244 54.9606712397 36.7268247164
C 6.8154869695 65.7732515066 36.726944957
C 10.4322703619 65.7732271528 49.5117659686
C 6.8154381861 66.7593780915 37.713066209
C 10.4322561498 53.9745840002 37.7129901535
C 6.8155662985 53.9744534282 48.5254709322
C 10.4322049448 66.7592483371 48.5255345452
C 15.0161900903 54.960704683 41.3108021108
C 2.2314608779 54.9606694528 44.9274822136
C 2.2313505133 65.7731365886 41.3109478194
C 15.0161764371 65.7732096878 44.9276134376
C 3.2175830302 58.558613631 49.5115165116
C 3.2176312755 62.1753801551 36.7266946308
C 14.0301254177 58.5586718868 36.7268791777
C 14.0301186394 62.175341334 49.5116919725
C 6.9535851363 53.2367083907 44.7895685385
C 10.294158352 67.4969511695 44.7895015553
C 10.2942094121 53.2368931411 41.4489832287
C 6.9535491266 67.4971722091 41.4489166733
C 10.2941215247 58.6966679576 35.9891631888
C 10.2940989613 62.0373296506 50.2495689377
C 6.9535665019 62.0372249432 35.9891394525
C 6.9535661363 58.6965976387 50.2493018605
C 1.4937162647 62.0373927461 41.4489949606
C 15.7537604052 62.0371625755 44.7895377169
C 1.4936826351 58.6967278037 44.7895237842
C 15.7541635874 58.6966833771 41.4488696043
C 15.5774896736 61.8607002944 36.1657597122
C 1.6703957979 58.8732701935 36.16569048
C 1.6702599688 61.8606278264 50.072726669
C 15.5772292643 58.8732371159 50.0729307852
C 1.6702779754 67.3204483321 44.6129926433
C 1.6703427681 53.4133510517 41.625441843
C 15.5775565463 53.4135497556 44.6128766732
C 15.577398892 67.3204469454 41.6255586376
C 10.117614503 53.4133515277 50.0728314557
C 7.1301471333 53.4134751455 36.165727497
C 10.1175436564 67.320634521 36.1658922849
C 7.1301936987 67.3204913065 50.0729098016
C 6.5036575671 51.863508667 62.4871318773
C 10.7439990929 68.8701738705 62.4870677986
C 10.744038804 51.8636870669 58.2467837008
C 6.5036289463 68.8703719466 58.2467861397
C 10.74402424 58.2468147122 51.863661147
C 10.7439972439 62.4871828615 68.8704806416
C 6.5037191035 62.4871424536 51.8636345476
C 6.5036800133 58.2467293982 68.8702080244
C 0.1204916595 62.487184024 58.2467494193
C 17.1270004781 62.4870046479 62.4870990204
C 0.1204797896 58.2467418027 62.4870429068
C 17.1273768333 58.2468243157 58.2466795558
C 15.1275890349 60.4874962347 53.8633198705
C 2.1202474358 60.2465051508 53.8632122552
C 2.1201254083 60.4874171747 66.870561909
C 15.1274042051 60.24643339 66.870687148
C 2.120141121 66.8705365445 60.4874966452
C 2.1201785657 53.8632266605 60.2463633057
C 15.1275932537 53.8633508508 60.4873691122
C 15.1274957628 66.8706013097 60.2464629732
C 8.7444019368 53.8631940658 66.8706221414
C 8.5033814214 53.8633272042 53.8632932366
C 8.7443223421 66.8707196875 53.8634183894
C 8.5033962544 66.8706011199 66.870719177
C 6.3922740834 67.182371166 63.5845446655
C 10.8551832622 53.5513381054 63.5844395753
C 10.8551965877 67.1825464096 57.1493710437
C 6.3923053638 53.5515588243 57.1494592933
C 11.8414538758 58.1355696999 67.1825297621
C 11.841441523 62.5984389917 53.5516202295
C 5.4063302481 62.5984369806 67.1824682361
C 5.4063159636 58.1355240245 53.5513826493
C 15.4392810145 63.5844819598 58.135388637
C 1.8081881664 63.5843816092 62.598351601
C 15.4393750903 57.1492136308 62.598227421
C 1.808525973 57.1494049665 58.1353555456
C 15.4393321505 58.1352385648 63.5844510657
C 1.8082092224 62.5982171241 63.5844360361
C 15.4393548208 62.5983530153 57.1492663812
C 1.8085546973 58.1356003387 57.1493009939
C 6.3924245351 63.5846068193 67.1825310591
C 10.8553206815 63.584562917 53.5516418857
C 10.8553638007 57.1493893193 67.1825308694
C 6.3924287021 57.1493870047 53.5513874408
C 11.8413873963 67.1825276475 58.135446848
C 11.8413311722 53.5513698516 62.5983333564
C 5.406168413 67.1823922565 62.5983859032
C 5.4061965233 53.5515000303 58.135607224
C 15.0162935834 58.558634311 54.9606792357
C 2.2315447259 62.1753797136 54.9605732935
C 2.2313507065 58.5585520808 65.7731811118
C 15.0161642291 62.1752178888 65.7731759444
C 3.2175306766 66.7592270465 58.5586437213
C 3.2175211248 53.9744836531 62.1752527533
C 14.0300768275 53.9745484113 58.5585641646
C 14.0301248382 66.7594071574 62.1753334759
C 6.8155915837 54.9606430811 66.7592212617
C 10.4322905244 54.9606712397 53.9745247164
C 6.8154869695 65.7732515066 53.974644957
C 10.4322703619 65.7732271528 66.7594659686
C 6.8154381861 66.7593780915 54.9607662124
C 10.4322561498 53.9745840002 54.9606901535
C 6.8155662985 53.9744534282 65.7731709288
C 10.4322049448 66.7592483371 65.7732345452
C 15.0161900903 54.960704683 58.5585021108
C 2.2314608779 54.9606694528 62.1751822136
C 2.2313505133 65.7731365886 58.5586478194
C 15.0161764371 65.7732096878 62.1753134341
C 3.2175830302 58.558613631 66.7592165116
C 3.2176312755 62.1753801551 53.9743946308
C 14.0301254177 58.5586718868 53.9745791777
C 14.0301186394 62.175341334 66.7593919725
C 6.9535851363 53.2367083907 62.037268542
C 10.294158352 67.4969511695 62.0372015553
C 10.2942094121 53.2368931411 58.6966832253
C 6.9535491266 67.4971722091 58.6966166733
C 10.2941215247 58.6966679576 53.2368631888
C 10.2940989613 62.0373296506 67.4972689377
C 6.9535665019 62.0372249432 53.2368394525
C 6.9535661363 58.6965976387 67.4970018605
C 1.4937162647 62.0373927461 58.6966949606
C 15.7537604052 62.0371625755 62.0372377169
C 1.4936826351 58.6967278037 62.0372237842
C 15.7541635874 58.6966833771 58.6965696043
C 15.5774896736 61.8607002944 53.4134597088
C 1.6703957979 58.8732701935 53.41339048
C 1.6702599688 61.8606278264 67.320426669
C 15.5772292643 58.8732371159 67.3206307886
C 1.6702779754 67.3204483321 61.8606926433
C 1.6703427681 53.4133510517 58.873141843
C 15.5775565463 53.4135497556 61.8605766732
C 15.577398892 67.3204469454 58.8732586376
C 10.117614503 53.4133515277 67.3205314591
C 7.1301471333 53.4134751455 53.4134274935
C 10.1175436564 67.320634521 53.4135922884
C 7.1301936987 67.3204913065 67.3206098016
C 23.7513575671 34.615808667 45.2394318807
C 27.9916990929 51.6224738705 45.2393677986
C 27.991738804 34.6159870669 40.9990837008
C 23.7513289463 51.6226719466 40.9990861397
C 27.99172424 40.9991147122 34.6159611436
C 27.9916972405 45.2394828615 51.6227806381
C 23.7514191035 45.2394424536 34.6159345476
C 23.7513800133 40.9990293982 51.6225080244
C 17.3681916595 45.239484024 40.9990494193
C 34.3747004781 45.2393046479 45.2393990204
C 17.3681797862 40.9990418027 45.2393429068
C 34.3750768333 40.9991243157 40.9989795592
C 32.3752890349 43.2397962347 36.6156198705
C 19.3679474358 42.9988051508 36.6155122552
C 19.3678254083 43.2397171747 49.622861909
C 32.3751042051 42.9987333865 49.622987148
C 19.367841121 49.6228365445 43.2397966452
C 19.3678785657 36.6155266605 42.9986633057
C 32.3752932537 36.6156508508 43.2396691122
C 32.3751957628 49.6229013062 42.9987629732
C 25.9921019368 36.6154940658 49.622922138
C 25.7510814214 36.6156272042 36.6155932332
C 25.9920223421 49.6230196875 36.6157183894
C 25.7510962544 49.6229011199 49.623019177
C 23.6399740834 49.934671166 46.3368446655
C 28.1028832622 36.303638102 46.3367395787
C 28.1028965912 49.9348464096 39.9016710437
C 23.6400053638 36.3038588208 39.9017592933
C 29.0891538792 40.8878696999 49.9348297621
C 29.089141523 45.3507389917 36.3039202295
C 22.6540302481 45.3507369806 49.9347682361
C 22.6540159636 40.887824028 36.3036826493
C 32.6869810179 46.3367819598 40.887688637
C 19.0558881664 46.3366816127 45.3506516045
C 32.6870750869 39.9015136308 45.350527421
C 19.056225973 39.9017049665 40.8876555456
C 32.6870321505 40.8875385648 46.3367510691
C 19.0559092224 45.3505171241 46.3367360361
C 32.6870548208 45.3506530153 39.9015663846
C 19.0562546973 40.8879003387 39.9016009973
C 23.6401245351 46.3369068193 49.9348310591
C 28.1030206815 46.336862917 36.3039418857
C 28.1030638042 39.9016893193 49.9348308694
C 23.6401286987 39.9016870047 36.3036874408
C 29.0890873928 49.9348276475 40.887746848
C 29.0890311757 36.3036698516 45.3506333564
C 22.653868413 49.9346922565 45.3506859032
C 22.6538965233 36.3038000303 40.887907224
C 32.2639935834 41.310934311 37.7129792392
C 19.4792447259 44.9276797136 37.7128732935
C 19.4790507065 41.3108520808 48.5254811118
C 32.2638642291 44.9275178888 48.5254759444
C 20.4652306766 49.5115270465 41.3109437213
C 20.4652211248 36.7267836531 44.9275527533
C 31.2777768275 36.7268484113 41.3108641646
C 31.2778248416 49.5117071574 44.9276334759
C 24.0632915837 37.7129430811 49.5115212617
C 27.6799905244 37.7129712397 36.7268247164
C 24.063186966 48.5255515066 36.726944957
C 27.6799703619 48.5255271494 49.5117659686
C 24.0631381861 49.5116780915 37.713066209
C 27.6799561498 36.7268840002 37.7129901535
C 24.0632662985 36.7267534282 48.5254709322
C 27.6799049448 49.5115483405 48.5255345452
C 32.2638900903 37.713004683 41.3108021108
C 19.4791608779 37.7129694528 44.9274822136
C 19.4790505133 48.5254365886 41.3109478194
C 32.2638764371 48.5255096878 44.9276134376
C 20.4652830302 41.310913631 49.5115165116
C 20.4653312755 44.9276801551 36.7266946308
C 31.2778254177 41.3109718868 36.7268791777
C 31.2778186428 44.9276413375 49.5116919725
C 24.2012851363 35.9890083907 44.7895685385
C 27.541858352 50.249251173 44.7895015553
C 27.5419094121 35.9891931411 41.4489832287
C 24.2012491266 50.2494722091 41.4489166733
C 27.5418215247 41.4489679576 35.9891631888
C 27.5417989613 44.7896296506 50.2495689377
C 24.2012665019 44.7895249432 35.9891394525
C 24.2012661363 41.4488976387 50.2493018605
C 18.7414162647 44.7896927461 41.4489949606
C 33.0014604052 44.7894625755 44.7895377169
C 18.7413826351 41.4490278037 44.7895237842
C 33.0018635874 41.4489833771 41.4488696043
C 32.8251896736 44.6130002944 36.1657597122
C 18.9180957979 41.6255701935 36.16569048
C 18.9179599688 44.612927823 50.072726669
C 32.8249292643 41.6255371159 50.0729307852
C 18.9179779754 50.0727483321 44.6129926433
C 18.9180427681 36.1656510517 41.625441843
C 32.8252565463 36.1658497521 44.6128766732
C 32.825098892 50.0727469454 41.6255586376
C 27.365314503 36.1656515277 50.0728314557
C 24.3778471333 36.1657751455 36.165727497
C 27.3652436564 50.0729345176 36.1658922849
C 24.3778936952 50.0727913065 50.0729098016
C 23.7513575671 34.615808667 62.4871318773
C 27.9916990929 51.6224738705 62.4870677986
C 27.991738804 34.6159870669 58.2467837008
C 23.7513289463 51.6226719466 58.2467861397
C 27.99172424 40.9991147122 51.863661147
C 27.9916972405 45.2394828615 68.8704806416
C 23.7514191035 45.2394424536 51.8636345476
C 23.7513800133 40.9990293982 68.8702080244
C 17.3681916595 45.239484024 58.2467494193
C 34.3747004781 45.2393046479 62.4870990204
C 17.3681797862 40.9990418027 62.4870429068
C 34.3750768333 40.9991243157 58.2466795558
C 32.3752890349 43.2397962347 53.8633198705
C 19.3679474358 42.9988051508 53.8632122552
C 19.3678254083 43.2397171747 66.870561909
C 32.3751042051 42.9987333865 66.870687148
C 19.367841121 49.6228365445 60.4874966452
C 19.3678785657 36.6155266605 60.2463633057
C 32.3752932537 36.6156508508 60.4873691122
C 32.3751957628 49.6229013062 60.2464629732
C 25.9921019368 36.6154940658 66.8706221414
C 25.7510814214 36.6156272042 53.8632932366
C 25.9920223421 49.6230196875 53.8634183894
C 25.7510962544 49.6229011199 66.870719177
C 23.6399740834 49.934671166 63.5845446655
C 28.1028832622 36.303638102 63.5844395753
C 28.1028965912 49.9348464096 57.1493710437
C 23.6400053638 36.3038588208 57.1494592933
C 29.0891538792 40.8878696999 67.1825297621
C 29.089141523 45.3507389917 53.5516202295
C 22.6540302481 45.3507369806 67.1824682361
C 22.6540159636 40.887824028 53.5513826493
C 32.6869810179 46.3367819598 58.135388637
C 19.0558881664 46.3366816127 62.598351601
C 32.6870750869 39.9015136308 62.598227421
C 19.056225973 39.9017049665 58.1353555456
C 32.6870321505 40.8875385648 63.5844510657
C 19.0559092224 45.3505171241 63.5844360361
C 32.6870548208 45.3506530153 57.1492663812
C 19.0562546973 40.8879003387 57.1493009939
C 23.6401245351 46.3369068193 67.1825310591
C 28.1030206815 46.336862917 53.5516418857
C 28.1030638042 39.9016893193 67.1825308694
C 23.6401286987 39.9016870047 53.5513874408
C 29.0890873928 49.9348276475 58.135446848
C 29.0890311757 36.3036698516 62.5983333564
C 22.653868413 49.9346922565 62.5983859032
C 22.6538965233 36.3038000303 58.135607224
C 32.2639935834 41.310934311 54.9606792357
C 19.4792447259 44.9276797136 54.9605732935
C 19.4790507065 41.3108520808 65.7731811118
C 32.2638642291 44.9275178888 65.7731759444
C 20.4652306766 49.5115270465 58.5586437213
C 20.4652211248 36.7267836531 62.1752527533
C 31.2777768275 36.7268484113 58.5585641646
C 31.2778248416 49.5117071574 62.1753334759
C 24.0632915837 37.7129430811 66.7592212617
C 27.6799905244 37.7129712397 53.9745247164
C 24.063186966 48.5255515066 53.974644957
C 27.6799703619 48.5255271494 66.7594659686
C 24.0631381861 49.5116780915 54.9607662124
C 27.6799561498 36.7268840002 54.9606901535
C 24.0632662985 36.7267534282 65.7731709288
C 27.6799049448 49.5115483405 65.7732345452
C 32.2638900903 37.713004683 58.5585021108
C 19.4791608779 37.7129694528 62.1751822136
C 19.4790505133 48.5254365886 58.5586478194
C 32.2638764371 48.5255096878 62.1753134341
C 20.4652830302 41.310913631 66.7592165116
C 20.4653312755 44.9276801551 53.9743946308
C 31.2778254177 41.3109718868 53.9745791777
C 31.2778186428 44.9276413375 66.7593919725
C 24.2012851363 35.9890083907 62.037268542
C 27.541858352 50.249251173 62.0372015553
C 27.5419094121 35.9891931411 58.6966832253
C 24.2012491266 50.2494722091 58.6966166733
C 27.5418215247 41.4489679576 53.2368631888
C 27.5417989613 44.7896296506 67.4972689377
C 24.2012665019 44.7895249432 53.2368394525
C 24.2012661363 41.4488976387 67.4970018605
C 18.7414162647 44.7896927461 58.6966949606
C 33.0014604052 44.7894625755 62.0372377169
C 18.7413826351 41.4490278037 62.0372237842
C 33.0018635874 41.4489833771 58.6965696043
C 32.8251896736 44.6130002944 53.4134597088
C 18.9180957979 41.6255701935 53.41339048
C 18.9179599688 44.612927823 67.320426669
C 32.8249292643 41.6255371159 67.3206307886
C 18.9179779754 50.0727483321 61.8606926433
C 18.9180427681 36.1656510517 58.873141843
C 32.8252565463 36.1658497521 61.8605766732
C 32.825098892 50.0727469454 58.8732586376
C 27.365314503 36.1656515277 67.3205314591
C 24.3778471333 36.1657751455 53.4134274935
C 27.3652436564 50.0729345176 53.4135922884
C 24.3778936952 50.0727913065 67.3206098016
C 23.7513575671 51.863508667 45.2394318807
C 27.9916990929 68.8701738705 45.2393677986
C 27.991738804 51.8636870669 40.9990837008
C 23.7513289463 68.8703719466 40.9990861397
C 27.99172424 58.2468147122 34.6159611436
C 27.9916972405 62.4871828615 51.6227806381
C 23.7514191035 62.4871424536 34.6159345476
C 23.7513800133 58.2467293982 51.6225080244
C 17.3681916595 62.487184024 40.9990494193
C 34.3747004781 62.4870046479 45.2393990204
C 17.3681797862 58.2467418027 45.2393429068
C 34.3750768333 58.2468243157 40.9989795592
C 32.3752890349 60.4874962347 36.6156198705
C 19.3679474358 60.2465051508 36.6155122552
C 19.3678254083 60.4874171747 49.622861909
C 32.3751042051 60.24643339 49.622987148
C 19.367841121 66.8705365445 43.2397966452
C 19.3678785657 53.8632266605 42.9986633057
C 32.3752932537 53.8633508508 43.2396691122
C 32.3751957628 66.8706013097 42.9987629732
C 25.9921019368 53.8631940658 49.622922138
C 25.7510814214 53.8633272042 36.6155932332
C 25.9920223421 66.8707196875 36.6157183894
C 25.7510962544 66.8706011199 49.623019177
C 23.6399740834 67.182371166 46.3368446655
C 28.1028832622 53.5513381054 46.3367395787
C 28.1028965912 67.1825464096 39.9016710437
C 23.6400053638 53.5515588243 39.9017592933
C 29.0891538792 58.1355696999 49.9348297621
C 29.089141523 62.5984389917 36.3039202295
C 22.6540302481 62.5984369806 49.9347682361
C 22.6540159636 58.1355240245 36.3036826493
C 32.6869810179 63.5844819598 40.887688637
C 19.0558881664 63.5843816092 45.3506516045
C 32.6870750869 57.1492136308 45.350527421
C 19.056225973 57.1494049665 40.8876555456
C 32.6870321505 58.1352385648 46.3367510691
C 19.0559092224 62.5982171241 46.3367360361
C 32.6870548208 62.5983530153 39.9015663846
C 19.0562546973 58.1356003387 39.9016009973
C 23.6401245351 63.5846068193 49.9348310591
C 28.1030206815 63.584562917 36.3039418857
C 28.1030638042 57.1493893193 49.9348308694
C 23.6401286987 57.1493870047 36.3036874408
C 29.0890873928 67.1825276475 40.887746848
C 29.0890311757 53.5513698516 45.3506333564
C 22.653868413 67.1823922565 45.3506859032
C 22.6538965233 53.5515000303 40.887907224
C 32.2639935834 58.558634311 37.7129792392
C 19.4792447259 62.1753797136 37.7128732935
C 19.4790507065 58.5585520808 48.5254811118
C 32.2638642291 62.1752178888 48.5254759444
C 20.4652306766 66.7592270465 41.3109437213
C 20.4652211248 53.9744836531 44.9275527533
C 31.2777768275 53.9745484113 41.3108641646
C 31.2778248416 66.7594071574 44.9276334759
C 24.0632915837 54.9606430811 49.5115212617
C 27.6799905244 54.9606712397 36.7268247164
C 24.063186966 65.7732515066 36.726944957
C 27.6799703619 65.7732271528 49.5117659686
C 24.0631381861 66.7593780915 37.713066209
C 27.6799561498 53.9745840002 37.7129901535
C 24.0632662985 53.9744534282 48.5254709322
C 27.6799049448 66.7592483371 48.5255345452
C 32.2638900903 54.960704683 41.3108021108
C 19.4791608779 54.9606694528 44.9274822136
C 19.4790505133 65.7731365886 41.3109478194
C 32.2638764371 65.7732096878 44.9276134376
C 20.4652830302 58.558613631 49.5115165116
C 20.4653312755 62.1753801551 36.7266946308
C 31.2778254177 58.5586718868 36.7268791777
C 31.2778186428 62.175341334 49.5116919725
C 24.2012851363 53.2367083907 44.7895685385
C 27.541858352 67.4969511695 44.7895015553
C 27.5419094121 53.2368931411 41.4489832287
C 24.2012491266 67.4971722091 41.4489166733
C 27.5418215247 58.6966679576 35.9891631888
C 27.5417989613 62.0373296506 50.2495689377
C 24.2012665019 62.0372249432 35.9891394525
C 24.2012661363 58.6965976387 50.2493018605
C 18.7414162647 62.0373927461 41.4489949606
C 33.0014604052 62.0371625755 44.7895377169
C 18.7413826351 58.6967278037 44.7895237842
C 33.0018635874 58.6966833771 41.4488696043
C 32.8251896736 61.8607002944 36.1657597122
C 18.9180957979 58.8732701935 36.16569048
C 18.9179599688 61.8606278264 50.072726669
C 32.8249292643 58.8732371159 50.0729307852
C 18.9179779754 67.3204483321 44.6129926433
C 18.9180427681 53.4133510517 41.625441843
C 32.8252565463 53.4135497556 44.6128766732
C 32.825098892 67.3204469454 41.6255586376
C 27.365314503 53.4133515277 50.0728314557
C 24.3778471333 53.4134751455 36.165727497
C 27.3652436564 67.320634521 36.1658922849
C 24.3778936952 67.3204913065 50.0729098016
C 23.7513575671 51.863508667 62.4871318773
C 27.9916990929 68.8701738705 62.4870677986
C 27.991738804 51.8636870669 58.2467837008
C 23.7513289463 68.8703719466 58.2467861397
C 27.99172424 58.2468147122 51.863661147
C 27.9916972405 62.4871828615 68.8704806416
C 23.7514191035 62.4871424536 51.8636345476
C 23.7513800133 58.2467293982 68.8702080244
C 17.3681916595 62.487184024 58.2467494193
C 34.3747004781 62.4870046479 62.4870990204
C 17.3681797862 58.2467418027 62.4870429068
C 34.3750768333 58.2468243157 58.2466795558
C 32.3752890349 60.4874962347 53.8633198705
C 19.3679474358 60.2465051508 53.8632122552
C 19.3678254083 60.4874171747 66.870561909
C 32.3751042051 60.24643339 66.870687148
C 19.367841121 66.8705365445 60.4874966452
C 19.3678785657 53.8632266605 60.2463633057
C 32.3752932537 53.8633508508 60.4873691122
C 32.3751957628 66.8706013097 60.2464629732
C 25.9921019368 53.8631940658 66.8706221414
C 25.7510814214 53.8633272042 53.8632932366
C 25.9920223421 66.8707196875 53.8634183894
C 25.7510962544 66.8706011199 66.870719177
C 23.6399740834 67.182371166 63.5845446655
C 28.1028832622 53.5513381054 63.5844395753
C 28.1028965912 67.1825464096 57.1493710437
C 23.6400053638 53.5515588243 57.1494592933
C 29.0891538792 58.1355696999 67.1825297621
C 29.089141523 62.5984389917 53.5516202295
C 22.6540302481 62.5984369806 67.1824682361
C 22.6540159636 58.1355240245 53.5513826493
C 32.6869810179 63.5844819598 58.135388637
C 19.0558881664 63.5843816092 62.598351601
C 32.6870750869 57.1492136308 62.598227421
C 19.056225973 57.1494049665 58.1353555456
C 32.6870321505 58.1352385648 63.5844510657
C 19.0559092224 62.5982171241 63.5844360361
C 32.6870548208 62.5983530153 57.1492663812
C 19.0562546973 58.1356003387 57.1493009939
C 23.6401245351 63.5846068193 67.1825310591
C 28.1030206815 63.584562917 53.5516418857
C 28.1030638042 57.1493893193 67.1825308694
C 23.6401286987 57.1493870047 53.5513874408
C 29.0890873928 67.1825276475 58.135446848
C 29.0890311757 53.5513698516 62.5983333564
C 22.653868413 67.1823922565 62.5983859032
C 22.6538965233 53.5515000303 58.135607224
C 32.2639935834 58.558634311 54.9606792357
C 19.4792447259 62.1753797136 54.9605732935
C 19.4790507065 58.5585520808 65.7731811118
C 32.2638642291 62.1752178888 65.7731759444
C 20.4652306766 66.7592270465 58.5586437213
C 20.4652211248 53.9744836531 62.1752527533
C 31.2777768275 53.9745484113 58.5585641646
C 31.2778248416 66.7594071574 62.1753334759
C 24.0632915837 54.9606430811 66.7592212617
C 27.6799905244 54.9606712397 53.9745247164
C 24.063186966 65.7732515066 53.974644957
C 27.6799703619 65.7732271528 66.7594659686
C 24.0631381861 66.7593780915 54.9607662124
C 27.6799561498 53.9745840002 54.9606901535
C 24.0632662985 53.9744534282 65.7731709288
C 27.6799049448 66.7592483371 65.7732345452
C 32.2638900903 54.960704683 58.5585021108
C 19.4791608779 54.9606694528 62.1751822136
C 19.4790505133 65.7731365886 58.5586478194
C 32.2638764371 65.7732096878 62.1753134341
C 20.4652830302 58.558613631 66.7592165116
C 20.4653312755 62.1753801551 53.9743946308
C 31.2778254177 58.5586718868 53.9745791777
C 31.2778186428 62.175341334 66.7593919725
C 24.2012851363 53.2367083907 62.037268542
C 27.541858352 67.4969511695 62.0372015553
C 27.5419094121 53.2368931411 58.6966832253
C 24.2012491266 67.4971722091 58.6966166733
C 27.5418215247 58.6966679576 53.2368631888
C 27.5417989613 62.0373296506 67.4972689377
C 24.2012665019 62.0372249432 53.2368394525
C 24.2012661363 58.6965976387 67.4970018605
C 18.7414162647 62.0373927461 58.6966949606
C 33.0014604052 62.0371625755 62.0372377169
C 18.7413826351 58.6967278037 62.0372237842
C 33.0018635874 58.6966833771 58.6965696043
C 32.8251896736 61.8607002944 53.4134597088
C 18.9180957979 58.8732701935 53.41339048
C 18.9179599688 61.8606278264 67.320426669
C 32.8249292643 58.8732371159 67.3206307886
C 18.9179779754 67.3204483321 61.8606926433
C 18.9180427681 53.4133510517 58.873141843
C 32.8252565463 53.4135497556 61.8605766732
C 32.825098892 67.3204469454 58.8732586376
C 27.365314503 53.4133515277 67.3205314591
C 24.3778471333 53.4134751455 53.4134274935
C 27.3652436564 67.320634521 53.4135922884
C 24.3778936952 67.3204913065 67.3206098016
Zn 8.6238463504 34.495240957 47.4311967838
Zn 8.6237767214 34.4955568161 38.80739931
Zn 12.9357525538 43.1193741076 34.4955267396
Zn 4.3119773778 43.1192438564 34.4952982146
Zn -1.365468904e-04 47.4311270583 43.1192764476
Zn 1.1251926891e-04 38.8073706616 43.1190518308
Zn -1.7477512255e-04 43.1191034739 47.4311706501
Zn 1.5616825623e-04 43.1193182491 38.8073119573
Zn 8.6239027538 47.431260828 34.4955859293
Zn 8.623889956 38.8073035025 34.4953725408
Zn 12.9358452395 34.4954260991 43.1192515661
Zn 4.311881215 34.4953304075 43.1192636981
Zn 8.6238463504 34.495240957 64.6788967838
Zn 8.6237767214 34.4955568161 56.05509931
Zn 12.9357525538 43.1193741076 51.7432267395
Zn 4.3119773778 43.1192438564 51.7429982144
Zn -1.365468904e-04 47.4311270583 60.3669764442
Zn 1.1251926891e-04 38.8073706616 60.3667518308
Zn -1.7477512255e-04 43.1191034739 64.6788706501
Zn 1.5616825623e-04 43.1193182491 56.0550119573
Zn 8.6239027538 47.431260828 51.7432859302
Zn 8.623889956 38.8073035025 51.7430725417
Zn 12.9358452395 34.4954260991 60.3669515661
Zn 4.311881215 34.4953304075 60.3669636981
Zn 8.6238463504 51.7429409555 47.4311967838
Zn 8.6237767214 51.7432568161 38.80739931
Zn 12.9357525538 60.3670741076 34.4955267396
Zn 4.3119773778 60.3669438564 34.4952982146
Zn -1.365468904e-04 64.6788270583 43.1192764476
Zn 1.1251926891e-04 56.0550706581 43.1190518308
Zn -1.7477512255e-04 60.3668034739 47.4311706501
Zn 1.5616825623e-04 60.3670182491 38.8073119573
Zn 8.6239027538 64.678960828 34.4955859293
Zn 8.623889956 56.0550035025 34.4953725408
Zn 12.9358452395 51.7431260992 43.1192515661
Zn 4.311881215 51.743030409 43.1192636981
Zn 8.6238463504 51.7429409555 64.6788967838
Zn 8.6237767214 51.7432568161 56.05509931
Zn 12.9357525538 60.3670741076 51.7432267395
Zn 4.3119773778 60.3669438564 51.7429982144
Zn -1.365468904e-04 64.6788270583 60.3669764442
Zn 1.1251926891e-04 56.0550706581 60.3667518308
Zn -1.7477512255e-04 60.3668034739 64.6788706501
Zn 1.5616825623e-04 60.3670182491 56.0550119573
Zn 8.6239027538 64.678960828 51.7432859302
Zn 8.623889956 56.0550035025 51.7430725417
Zn 12.9358452395 51.7431260992 60.3669515661
Zn 4.311881215 51.743030409 60.3669636981
Zn 25.8715463504 34.495240957 47.4311967838
Zn 25.8714767249 34.4955568161 38.80739931
Zn 30.1834525538 43.1193741076 34.4955267396
Zn 21.5596773744 43.1192438564 34.4952982146
Zn 17.2475634534 47.4311270583 43.1192764476
Zn 17.2478125205 38.8073706616 43.1190518308
Zn 17.2475252256 43.1191034739 47.4311706501
Zn 17.2478561676 43.1193182491 38.8073119573
Zn 25.8716027538 47.431260828 34.4955859293
Zn 25.871589956 38.8073035025 34.4953725408
Zn 30.1835452395 34.4954260991 43.1192515661
Zn 21.559581215 34.4953304075 43.1192636981
Zn 25.8715463504 34.495240957 64.6788967838
Zn 25.8714767249 34.4955568161 56.05509931
Zn 30.1834525538 43.1193741076 51.7432267395
Zn 21.5596773744 43.1192438564 51.7429982144
Zn 17.2475634534 47.4311270583 60.3669764442
Zn 17.2478125205 38.8073706616 60.3667518308
Zn 17.2475252256 43.1191034739 64.6788706501
Zn 17.2478561676 43.1193182491 56.0550119573
Zn 25.8716027538 47.431260828 51.7432859302
Zn 25.871589956 38.8073035025 51.7430725417
Zn 30.1835452395 34.4954260991 60.3669515661
Zn 21.559581215 34.4953304075 60.3669636981
Zn 25.8715463504 51.7429409555 47.4311967838
Zn 25.8714767249 51.7432568161 38.80739931
Zn 30.1834525538 60.3670741076 34.4955267396
Zn 21.5596773744 60.3669438564 34.4952982146
Zn 17.2475634534 64.6788270583 43.1192764476
Zn 17.2478125205 56.0550706581 43.1190518308
Zn 17.2475252256 60.3668034739 47.4311706501
Zn 17.2478561676 60.3670182491 38.8073119573
Zn 25.8716027538 64.678960828 34.4955859293
Zn 25.871589956 56.0550035025 34.4953725408
Zn 30.1835452395 51.7431260992 43.1192515661
Zn 21.559581215 51.743030409 43.1192636981
Zn 25.8715463504 51.7429409555 64.6788967838
Zn 25.8714767249 51.7432568161 56.05509931
Zn 30.1834525538 60.3670741076 51.7432267395
Zn 21.5596773744 60.3669438564 51.7429982144
Zn 17.2475634534 64.6788270583 60.3669764442
Zn 17.2478125205 56.0550706581 60.3667518308
Zn 17.2475252256 60.3668034739 64.6788706501
Zn 17.2478561676 60.3670182491 56.0550119573
Zn 25.8716027538 64.678960828 51.7432859302
Zn 25.871589956 56.0550035025 51.7430725417
Zn 30.1835452395 51.7431260992 60.3669515661
Zn 21.559581215 51.743030409 60.3669636981
N 7.0791951991 51.155320844 46.2645278708
N 10.1683635043 35.0829350804 46.2644218009
N 10.1683595787 51.155526026 39.9740451249
N 7.0791956959 35.0832023852 39.9740359147
N 11.769082599 41.5747518255 51.1554890539
N 11.7690804189 44.6638873876 35.0832432933
N 5.4786764295 44.6638280107 51.1554119463
N 5.4786335655 41.5746580877 35.0829927084
N 16.6599447493 46.2645175774 41.57460423
N 0.5874738373 46.2643990546 44.6638327331
N 16.6600398945 39.9739983354 44.6636439191
N 0.5878339382 39.9740116954 41.5745115236
N 16.6599803761 41.5744804536 46.2644823472
N 0.5875167426 44.6636565478 46.2644161126
N 16.6600632755 44.6638437199 39.9739628603
N 0.587889086 41.5747792252 39.9739705942
N 7.0792945873 46.2645619143 51.155508223
N 10.1684267723 46.2645439491 35.0832774507
N 10.1684745484 39.9740109538 51.1554898335
N 7.079275532 39.9739734642 35.0830013599
N 11.7691291437 51.155491441 41.5746248272
N 11.7690632678 35.0829887483 44.6637887169
N 5.478569511 51.1553553394 44.6638135812
N 5.4785547918 35.0831023727 41.5747197379
N 15.7031962786 42.5315939166 37.6406645866
N 1.5446999691 43.7069833669 37.6406022017
N 1.5444399049 42.5314944457 48.5978666076
N 15.7029597747 43.7068121282 48.5978235125
N 3.1452379044 50.1983923315 42.5316147657
N 3.145185292 36.0398888055 43.7069021336
N 14.1024884018 36.0400122025 42.5315520082
N 14.1024867011 50.1985686582 43.7069626938
N 8.0362555289 37.6406315642 50.1984248675
N 9.2116022876 37.6406461316 36.0399563648
N 8.0361834335 48.5979211138 36.0401135948
N 9.2116217395 48.5979087851 50.1986853492
N 8.0360992785 50.1985953749 37.6407604114
N 9.2115427589 36.0400585195 37.6406885264
N 8.0362114679 36.039837604 48.5978866287
N 9.2115219443 50.1983987097 48.5978577699
N 15.7031325691 37.6407159054 42.5314393048
N 1.5446264456 37.640648598 43.7067863912
N 1.5444828551 48.5977973684 42.5316186912
N 15.7030259852 48.5977987793 43.7069318031
N 3.1452898476 42.5315945617 50.1983678949
N 3.1452788677 43.7069972133 36.0398505984
N 14.1024803574 42.5316485608 36.0400317269
N 14.1024326331 43.7070110736 50.1986263103
N 7.0791951991 51.155320844 63.5122278708
N 10.1683635043 35.0829350804 63.5121217974
N 10.1683595787 51.155526026 57.2217451249
N 7.0791956959 35.0832023852 57.2217359147
N 11.769082599 41.5747518255 68.4031890504
N 11.7690804189 44.6638873876 52.3309432933
N 5.4786764295 44.6638280107 68.4031119463
N 5.4786335655 41.5746580877 52.330692705
N 16.6599447493 46.2645175774 58.82230423
N 0.5874738373 46.2643990546 61.9115327331
N 16.6600398945 39.9739983354 61.9113439191
N 0.5878339382 39.9740116954 58.8222115236
N 16.6599803761 41.5744804536 63.5121823472
N 0.5875167426 44.6636565478 63.5121161126
N 16.6600632755 44.6638437199 57.2216628603
N 0.587889086 41.5747792252 57.2216705942
N 7.0792945873 46.2645619143 68.403208223
N 10.1684267723 46.2645439491 52.3309774507
N 10.1684745484 39.9740109538 68.4031898335
N 7.079275532 39.9739734642 52.3307013599
N 11.7691291437 51.155491441 58.8223248272
N 11.7690632678 35.0829887483 61.9114887204
N 5.478569511 51.1553553394 61.9115135812
N 5.4785547918 35.0831023727 58.8224197379
N 15.7031962786 42.5315939166 54.8883645866
N 1.5446999691 43.7069833669 54.8883022017
N 1.5444399049 42.5314944457 65.8455666076
N 15.7029597747 43.7068121282 65.8455235125
N 3.1452379044 50.1983923315 59.7793147657
N 3.145185292 36.0398888055 60.9546021371
N 14.1024884018 36.0400122025 59.7792520047
N 14.1024867011 50.1985686582 60.9546626903
N 8.0362555289 37.6406315642 67.4461248675
N 9.2116022876 37.6406461316 53.2876563648
N 8.0361834335 48.5979211138 53.2878135914
N 9.2116217395 48.5979087851 67.4463853458
N 8.0360992785 50.1985953749 54.8884604114
N 9.2115427589 36.0400585195 54.8883885264
N 8.0362114679 36.039837604 65.8455866287
N 9.2115219443 50.1983987097 65.8455577699
N 15.7031325691 37.6407159054 59.7791393048
N 1.5446264456 37.640648598 60.9544863878
N 1.5444828551 48.5977973684 59.7793186912
N 15.7030259852 48.5977987793 60.9546318031
N 3.1452898476 42.5315945617 67.4460678915
N 3.1452788677 43.7069972133 53.2875505984
N 14.1024803574 42.5316485608 53.2877317269
N 14.1024326331 43.7070110736 67.4463263103
N 7.0791951991 68.403020844 46.2645278708
N 10.1683635043 52.3306350804 46.2644218009
N 10.1683595787 68.403226026 39.9740451249
N 7.0791956959 52.3309023852 39.9740359147
N 11.769082599 58.8224518255 51.1554890539
N 11.7690804189 61.9115873841 35.0832432933
N 5.4786764295 61.9115280107 51.1554119463
N 5.4786335655 58.8223580843 35.0829927084
N 16.6599447493 63.5122175774 41.57460423
N 0.5874738373 63.5120990546 44.6638327331
N 16.6600398945 57.2216983354 44.6636439191
N 0.5878339382 57.2217116954 41.5745115236
N 16.6599803761 58.8221804536 46.2644823472
N 0.5875167426 61.9113565478 46.2644161126
N 16.6600632755 61.9115437199 39.9739628603
N 0.587889086 58.8224792252 39.9739705942
N 7.0792945873 63.5122619143 51.155508223
N 10.1684267723 63.5122439491 35.0832774507
N 10.1684745484 57.2217109572 51.1554898335
N 7.079275532 57.2216734642 35.0830013599
N 11.7691291437 68.403191441 41.5746248272
N 11.7690632678 52.3306887483 44.6637887169
N 5.478569511 68.4030553394 44.6638135812
N 5.4785547918 52.3308023762 41.5747197379
N 15.7031962786 59.7792939201 37.6406645866
N 1.5446999691 60.9546833634 37.6406022017
N 1.5444399049 59.7791944457 48.5978666076
N 15.7029597747 60.9545121248 48.5978235125
N 3.1452379044 67.4460923315 42.5316147657
N 3.145185292 53.2875888055 43.7069021336
N 14.1024884018 53.2877122059 42.5315520082
N 14.1024867011 67.4462686582 43.7069626938
N 8.0362555289 54.8883315642 50.1984248675
N 9.2116022876 54.8883461316 36.0399563648
N 8.0361834335 65.8456211138 36.0401135948
N 9.2116217395 65.8456087886 50.1986853492
N 8.0360992785 67.4462953749 37.6407604114
N 9.2115427589 53.287758516 37.6406885264
N 8.0362114679 53.287537604 48.5978866287
N 9.2115219443 67.4460987097 48.5978577699
N 15.7031325691 54.8884159054 42.5314393048
N 1.5446264456 54.888348598 43.7067863912
N 1.5444828551 65.8454973684 42.5316186912
N 15.7030259852 65.8454987793 43.7069318031
N 3.1452898476 59.7792945617 50.1983678949
N 3.1452788677 60.9546972133 36.0398505984
N 14.1024803574 59.7793485608 36.0400317269
N 14.1024326331 60.9547110701 50.1986263103
N 7.0791951991 68.403020844 63.5122278708
N 10.1683635043 52.3306350804 63.5121217974
N 10.1683595787 68.403226026 57.2217451249
N 7.0791956959 52.3309023852 57.2217359147
N 11.769082599 58.8224518255 68.4031890504
N 11.7690804189 61.9115873841 52.3309432933
N 5.4786764295 61.9115280107 68.4031119463
N 5.4786335655 58.8223580843 52.330692705
N 16.6599447493 63.5122175774 58.82230423
N 0.5874738373 63.5120990546 61.9115327331
N 16.6600398945 57.2216983354 61.9113439191
N 0.5878339382 57.2217116954 58.8222115236
N 16.6599803761 58.8221804536 63.5121823472
N 0.5875167426 61.9113565478 63.5121161126
N 16.6600632755 61.9115437199 57.2216628603
N 0.587889086 58.8224792252 57.2216705942
N 7.0792945873 63.5122619143 68.403208223
N 10.1684267723 63.5122439491 52.3309774507
N 10.1684745484 57.2217109572 68.4031898335
N 7.079275532 57.2216734642 52.3307013599
N 11.7691291437 68.403191441 58.8223248272
N 11.7690632678 52.3306887483 61.9114887204
N 5.478569511 68.4030553394 61.9115135812
N 5.4785547918 52.3308023762 58.8224197379
N 15.7031962786 59.7792939201 54.8883645866
N 1.5446999691 60.9546833634 54.8883022017
N 1.5444399049 59.7791944457 65.8455666076
N 15.7029597747 60.9545121248 65.8455235125
N 3.1452379044 67.4460923315 59.7793147657
N 3.145185292 53.2875888055 60.9546021371
N 14.1024884018 53.2877122059 59.7792520047
N 14.1024867011 67.4462686582 60.9546626903
N 8.0362555289 54.8883315642 67.4461248675
N 9.2116022876 54.8883461316 53.2876563648
N 8.0361834335 65.8456211138 53.2878135914
N 9.2116217395 65.8456087886 67.4463853458
N 8.0360992785 67.4462953749 54.8884604114
N 9.2115427589 53.287758516 54.8883885264
N 8.0362114679 53.287537604 65.8455866287
N 9.2115219443 67.4460987097 65.8455577699
N 15.7031325691 54.8884159054 59.7791393048
N 1.5446264456 54.888348598 60.9544863878
N 1.5444828551 65.8454973684 59.7793186912
N 15.7030259852 65.8454987793 60.9546318031
N 3.1452898476 59.7792945617 67.4460678915
N 3.1452788677 60.9546972133 53.2875505984
N 14.1024803574 59.7793485608 53.2877317269
N 14.1024326331 60.9547110701 67.4463263103
N 24.3268951991 51.155320844 46.2645278708
N 27.4160635077 35.0829350804 46.2644218009
N 27.4160595787 51.155526026 39.9740451249
N 24.3268956959 35.0832023852 39.9740359147
N 29.016782599 41.5747518255 51.1554890539
N 29.0167804189 44.6638873876 35.0832432933
N 22.7263764295 44.6638280107 51.1554119463
N 22.7263335655 41.5746580877 35.0829927084
N 33.9076447493 46.2645175774 41.57460423
N 17.8351738373 46.2643990546 44.6638327331
N 33.9077398945 39.9739983354 44.6636439191
N 17.8355339382 39.9740116954 41.5745115236
N 33.9076803761 41.5744804536 46.2644823472
N 17.8352167426 44.6636565478 46.2644161126
N 33.907763272 44.6638437199 39.9739628603
N 17.835589086 41.5747792252 39.9739705942
N 24.3269945873 46.2645619143 51.155508223
N 27.4161267723 46.2645439491 35.0832774507
N 27.4161745484 39.9740109538 51.1554898335
N 24.3269755286 39.9739734642 35.0830013599
N 29.0168291437 51.155491441 41.5746248272
N 29.0167632678 35.0829887483 44.6637887169
N 22.726269511 51.1553553394 44.6638135812
N 22.7262547884 35.0831023727 41.5747197379
N 32.9508962786 42.5315939166 37.6406645866
N 18.7923999691 43.7069833669 37.6406022017
N 18.7921399049 42.5314944457 48.5978666076
N 32.9506597747 43.7068121282 48.5978235125
N 20.3929379044 50.1983923315 42.5316147657
N 20.392885292 36.0398888055 43.7069021336
N 31.3501884052 36.0400122025 42.5315520082
N 31.3501867046 50.1985686582 43.7069626938
N 25.2839555289 37.6406315642 50.1984248675
N 26.4593022876 37.6406461316 36.0399563648
N 25.2838834335 48.5979211138 36.0401135948
N 26.4593217395 48.5979087851 50.1986853492
N 25.2837992785 50.1985953749 37.6407604114
N 26.4592427589 36.0400585195 37.6406885264
N 25.2839114645 36.039837604 48.5978866287
N 26.4592219443 50.1983987097 48.5978577699
N 32.9508325691 37.6407159054 42.5314393048
N 18.7923264491 37.640648598 43.7067863912
N 18.7921828551 48.5977973684 42.5316186912
N 32.9507259852 48.5977987793 43.7069318031
N 20.3929898476 42.5315945617 50.1983678949
N 20.3929788712 43.7069972133 36.0398505984
N 31.3501803574 42.5316485608 36.0400317269
N 31.3501326331 43.7070110736 50.1986263103
N 24.3268951991 51.155320844 63.5122278708
N 27.4160635077 35.0829350804 63.5121217974
N 27.4160595787 51.155526026 57.2217451249
N 24.3268956959 35.0832023852 57.2217359147
N 29.016782599 41.5747518255 68.4031890504
N 29.0167804189 44.6638873876 52.3309432933
N 22.7263764295 44.6638280107 68.4031119463
N 22.7263335655 41.5746580877 52.330692705
N 33.9076447493 46.2645175774 58.82230423
N 17.8351738373 46.2643990546 61.9115327331
N 33.9077398945 39.9739983354 61.9113439191
N 17.8355339382 39.9740116954 58.8222115236
N 33.9076803761 41.5744804536 63.5121823472
N 17.8352167426 44.6636565478 63.5121161126
N 33.907763272 44.6638437199 57.2216628603
N 17.835589086 41.5747792252 57.2216705942
N 24.3269945873 46.2645619143 68.403208223
N 27.4161267723 46.2645439491 52.3309774507
N 27.4161745484 39.9740109538 68.4031898335
N 24.3269755286 39.9739734642 52.3307013599
N 29.0168291437 51.155491441 58.8223248272
N 29.0167632678 35.0829887483 61.9114887204
N 22.726269511 51.1553553394 61.9115135812
N 22.7262547884 35.0831023727 58.8224197379
N 32.9508962786 42.5315939166 54.8883645866
N 18.7923999691 43.7069833669 54.8883022017
N 18.7921399049 42.5314944457 65.8455666076
N 32.9506597747 43.7068121282 65.8455235125
N 20.3929379044 50.1983923315 59.7793147657
N 20.392885292 36.0398888055 60.9546021371
N 31.3501884052 36.0400122025 59.7792520047
N 31.3501867046 50.1985686582 60.9546626903
N 25.2839555289 37.6406315642 67.4461248675
N 26.4593022876 37.6406461316 53.2876563648
N 25.2838834335 48.5979211138 53.2878135914
N 26.4593217395 48.5979087851 67.4463853458
N 25.2837992785 50.1985953749 54.8884604114
N 26.4592427589 36.0400585195 54.8883885264
N 25.2839114645 36.039837604 65.8455866287
N 26.4592219443 50.1983987097 65.8455577699
N 32.9508325691 37.6407159054 59.7791393048
N 18.7923264491 37.640648598 60.9544863878
N 18.7921828551 48.5977973684 59.7793186912
N 32.9507259852 48.5977987793 60.9546318031
N 20.3929898476 42.5315945617 67.4460678915
N 20.3929788712 43.7069972133 53.2875505984
N 31.3501803574 42.5316485608 53.2877317269
N 31.3501326331 43.7070110736 67.4463263103
N 24.3268951991 68.403020844 46.2645278708
N 27.4160635077 52.3306350804 46.2644218009
N 27.4160595787 68.403226026 39.9740451249
N 24.3268956959 52.3309023852 39.9740359147
N 29.016782599 58.8224518255 51.1554890539
N 29.0167804189 61.9115873841 35.0832432933
N 22.7263764295 61.9115280107 51.1554119463
N 22.7263335655 58.8223580843 35.0829927084
N 33.9076447493 63.5122175774 41.57460423
N 17.8351738373 63.5120990546 44.6638327331
N 33.9077398945 57.2216983354 44.6636439191
N 17.8355339382 57.2217116954 41.5745115236
N 33.9076803761 58.8221804536 46.2644823472
N 17.8352167426 61.9113565478 46.2644161126
N 33.907763272 61.9115437199 39.9739628603
N 17.835589086 58.8224792252 39.9739705942
N 24.3269945873 63.5122619143 51.155508223
N 27.4161267723 63.5122439491 35.0832774507
N 27.4161745484 57.2217109572 51.1554898335
N 24.3269755286 57.2216734642 35.0830013599
N 29.0168291437 68.403191441 41.5746248272
N 29.0167632678 52.3306887483 44.6637887169
N 22.726269511 68.4030553394 44.6638135812
N 22.7262547884 52.3308023762 41.5747197379
N 32.9508962786 59.7792939201 37.6406645866
N 18.7923999691 60.9546833634 37.6406022017
N 18.7921399049 59.7791944457 48.5978666076
N 32.9506597747 60.9545121248 48.5978235125
N 20.3929379044 67.4460923315 42.5316147657
N 20.392885292 53.2875888055 43.7069021336
N 31.3501884052 53.2877122059 42.5315520082
N 31.3501867046 67.4462686582 43.7069626938
N 25.2839555289 54.8883315642 50.1984248675
N 26.4593022876 54.8883461316 36.0399563648
N 25.2838834335 65.8456211138 36.0401135948
N 26.4593217395 65.8456087886 50.1986853492
N 25.2837992785 67.4462953749 37.6407604114
N 26.4592427589 53.287758516 37.6406885264
N 25.2839114645 53.287537604 48.5978866287
N 26.4592219443 67.4460987097 48.5978577699
N 32.9508325691 54.8884159054 42.5314393048
N 18.7923264491 54.888348598 43.7067863912
N 18.7921828551 65.8454973684 42.5316186912
N 32.9507259852 65.8454987793 43.7069318031
N 20.3929898476 59.7792945617 50.1983678949
N 20.3929788712 60.9546972133 36.0398505984
N 31.3501803574 59.7793485608 36.0400317269
N 31.3501326331 60.9547110701 50.1986263103
N 24.3268951991 68.403020844 63.5122278708
N 27.4160635077 52.3306350804 63.5121217974
N 27.4160595787 68.403226026 57.2217451249
N 24.3268956959 52.3309023852 57.2217359147
N 29.016782599 58.8224518255 68.4031890504
N 29.0167804189 61.9115873841 52.3309432933
N 22.7263764295 61.9115280107 68.4031119463
N 22.7263335655 58.8223580843 52.330692705
N 33.9076447493 63.5122175774 58.82230423
N 17.8351738373 63.5120990546 61.9115327331
N 33.9077398945 57.2216983354 61.9113439191
N 17.8355339382 57.2217116954 58.8222115236
N 33.9076803761 58.8221804536 63.5121823472
N 17.8352167426 61.9113565478 63.5121161126
N 33.907763272 61.9115437199 57.2216628603
N 17.835589086 58.8224792252 57.2216705942
N 24.3269945873 63.5122619143 68.403208223
N 27.4161267723 63.5122439491 52.3309774507
N 27.4161745484 57.2217109572 68.4031898335
N 24.3269755286 57.2216734642 52.3307013599
N 29.0168291437 68.403191441 58.8223248272
N 29.0167632678 52.3306887483 61.9114887204
N 22.726269511 68.4030553394 61.9115135812
N 22.7262547884 52.3308023762 58.8224197379
N 32.9508962786 59.7792939201 54.8883645866
N 18.7923999691 60.9546833634 54.8883022017
N 18.7921399049 59.7791944457 65.8455666076
N 32.9506597747 60.9545121248 65.8455235125
N 20.3929379044 67.4460923315 59.7793147657
N 20.392885292 53.2875888055 60.9546021371
N 31.3501884052 53.2877122059 59.7792520047
N 31.3501867046 67.4462686582 60.9546626903
N 25.2839555289 54.8883315642 67.4461248675
N 26.4593022876 54.8883461316 53.2876563648
N 25.2838834335 65.8456211138 53.2878135914
N 26.4593217395 65.8456087886 67.4463853458
N 25.2837992785 67.4462953749 54.8884604114
N 26.4592427589 53.287758516 54.8883885264
N 25.2839114645 53.287537604 65.8455866287
N 26.4592219443 67.4460987097 65.8455577699
N 32.9508325691 54.8884159054 59.7791393048
N 18.7923264491 54.888348598 60.9544863878
N 18.7921828551 65.8454973684 59.7793186912
N 32.9507259852 65.8454987793 60.9546318031
N 20.3929898476 59.7792945617 67.4460678915
N 20.3929788712 60.9546972133 53.2875505984
N 31.3501803574 59.7793485608 53.2877317269
N 31.3501326331 60.9547110701 67.4463263103
H 41.1670332244 14.664429627 12.5704588449
H 45.0711207695 2.5831143537 12.5702727767
H 45.0711349505 14.6645807272 4.6773199978
H 41.1670827702 2.5833487983 4.6774042977
H 47.0658285441 6.6719041306 14.6645768637
H 47.0658280543 10.5759268415 2.5833747457
H 39.1727644313 10.5759445618 14.6644755059
H 39.172781065 6.6718588726 2.5831732546
H 49.1597990193 12.5703500291 6.6716451805
H 37.0784551251 12.5702684717 10.575859986
H 49.1599185562 4.6771507358 10.5756444587
H 37.0787669359 4.6772926119 6.6716109852
H 49.1598841091 6.6713988868 12.5703999371
H 37.07852572 10.5756440413 12.5702354734
H 49.1599040888 10.5757993741 4.6771836754
H 37.078845513 6.6719603374 4.6772747192
H 41.1672249464 12.5705196913 14.6646014935
H 45.0713346168 12.5704204584 2.5834231048
H 45.0714136975 4.6772850816 14.6645750458
H 41.1672499625 4.6773449069 2.5831740722
H 47.0657793399 14.6645678535 6.6717126328
H 47.0656881202 2.5831568072 10.5758204336
H 39.1725795808 14.664437078 10.5758642496
H 39.1726346631 2.5832488927 6.6719715864
H 49.7910846672 6.0406662277 3.9465490816
H 36.4475799069 11.2071410495 3.9464576619
H 36.4472668266 6.0405445004 13.3011759897
H 49.7909496867 11.2069200927 13.3010298499
H 38.4419435071 15.2954824345 6.0406962422
H 38.4418554507 1.9519559214 11.2070529207
H 47.7964771569 1.9520103689 6.0406242572
H 47.7966031617 15.2957654451 11.207126282
H 40.5361660333 3.9465934565 15.2954323886
H 45.7025994261 3.9464916019 1.9519793127
H 40.536036196 13.3011535953 1.9521291745
H 45.7025742513 13.3012177808 15.2958314693
H 40.5359525067 15.295659251 3.9466261685
H 45.7025294591 1.9520872764 3.9465632799
H 40.5360738409 1.9519044335 13.3011231738
H 45.7024393329 15.2954790022 13.3010958672
H 49.7909404971 3.9465863194 6.0405267766
H 36.4474876248 3.9465764192 11.2069213794
H 36.4472917254 13.301106133 6.0406649514
H 49.7909496936 13.3011130045 11.2070640213
H 38.4420374519 6.0407019684 15.295449481
H 38.4419518585 11.2071688839 1.9518222827
H 47.7965307455 6.0407169153 1.9520683626
H 47.7966327657 11.207173727 15.2957290042
H 40.9110690982 2.311036581 10.8323577008
H 44.9806318325 15.6193531944 9.2059314784
H 45.3276379156 2.3112091822 6.4154780903
H 40.9109201919 14.9366386271 6.4154350124
H 43.7013190083 6.7625519637 1.6281910313
H 45.32750229 10.8323501912 14.936746853
H 42.5371631231 10.4851302884 1.6282438989
H 40.9109040032 6.41545097 14.9364630455
H 36.1236175824 9.2061041003 6.7626364774
H 49.4317426738 10.832083214 10.8322439523
H 36.1234114517 8.0418534665 10.4850079125
H 49.4321233168 6.4155300542 6.4154148844
H 36.8065357829 6.4157439429 10.8323177862
H 50.1146622024 10.4851082907 9.2059591851
H 36.806544217 10.8323779255 6.4155560637
H 50.1151227505 6.7625967698 8.0416638005
H 40.9108665171 10.8321323596 2.311167191
H 44.9805448248 9.206057942 15.6196679339
H 45.3275745406 6.4155109782 2.3111935489
H 41.2580004539 8.0416937839 15.6194671707
H 43.701393715 1.6282448889 6.7626688203
H 45.3275720362 14.9364439868 10.8322250108
H 42.537224863 1.6279744726 10.4850315833
H 42.5371525675 15.6196862371 6.7625115282
H 49.5348141977 10.9350212649 2.2083957978
H 36.3566767078 6.995730764 0.5820763696
H 36.7036801036 10.934938438 15.039198836
H 49.8816347059 6.995769523 16.6657338294
H 35.0774670283 15.3863898351 10.2520325212
H 36.7039227753 2.2082178187 6.3126363368
H 49.5349464496 2.2085489746 10.9349046049
H 51.160982605 15.3862701982 6.9957140096
H 45.4304459394 2.208211137 15.0392742257
H 41.4910141213 0.5822140201 1.8614266213
H 44.7473856558 16.6657194759 1.8615127253
H 41.4911388566 16.6655675616 15.3864515233
H 45.4303734129 15.0394882111 2.2085569051
H 40.808134183 2.208537222 2.2082971858
H 44.7475152999 1.8613935782 16.66559166
H 40.8081370358 15.0392794863 15.0395343659
H 49.8819749512 0.5822614892 10.2519884189
H 36.356637114 0.5820420053 6.9956313345
H 36.7037142851 15.0392892347 10.9350316204
H 49.5346886207 15.0393451069 6.3127268355
H 35.0774423675 10.251935741 15.3863801523
H 36.7039733387 6.3127871438 2.2082899693
H 51.1610859912 10.2520596001 1.8613917741
H 49.5345353887 6.3127016332 15.0395123337
H 41.2578523479 1.6281244206 9.2060063507
H 43.7013416304 15.6193780311 10.4850007789
H 44.9806889845 1.6282651343 8.0417595425
H 41.2579908504 15.6195910333 8.0417108901
H 44.9805018676 8.0417587353 1.6282389247
H 43.7012826812 10.4851514582 15.6197475527
H 41.257967873 9.2059260074 1.6281314784
H 42.5371709121 6.7625047602 15.6194829282
H 36.123523779 10.4853193128 8.0417892775
H 50.1146907888 9.2058625704 10.4850659786
H 36.1236372585 6.7625255057 9.2059653736
H 50.1151188491 8.0417718573 6.762495443
H 49.8819310938 10.2520392237 0.5821559816
H 35.077623765 6.9956282713 1.8613891835
H 36.3567189612 10.2520262672 16.6655056527
H 51.1608324776 6.9956620975 15.386553571
H 36.3567144975 16.6655341666 10.2520387235
H 35.0775707594 1.8613258672 6.9954805723
H 51.1611690561 1.8614657495 10.2518490299
H 49.8819241706 16.6655544878 6.9957147823
H 44.7474341046 0.5820362377 15.3865805361
H 41.4911328924 1.8612504154 0.5821089126
H 44.747423618 15.386570698 0.5822989374
H 41.4912096032 15.3864841318 16.665724864
H 41.1670332244 14.664429627 29.8181588449
H 45.0711207695 2.5831143537 29.8179727767
H 45.0711349505 14.6645807272 21.9250199978
H 41.1670827702 2.5833487983 21.9251043011
H 47.0658285441 6.6719041306 31.9122768603
H 47.0658280543 10.5759268415 19.8310747457
H 39.1727644313 10.5759445618 31.9121755059
H 39.172781065 6.6718588726 19.8308732546
H 49.1597990193 12.5703500291 23.9193451771
H 37.0784551251 12.5702684717 27.823559986
H 49.1599185562 4.6771507358 27.8233444587
H 37.0787669359 4.6772926119 23.9193109818
H 49.1598841091 6.6713988868 29.8180999371
H 37.07852572 10.5756440413 29.8179354699
H 49.1599040888 10.5757993741 21.9248836754
H 37.078845513 6.6719603374 21.9249747192
H 41.1672249464 12.5705196913 31.9123014935
H 45.0713346168 12.5704204584 19.8311231048
H 45.0714136975 4.6772850816 31.9122750424
H 41.1672499625 4.6773449069 19.8308740687
H 47.0657793399 14.6645678535 23.9194126328
H 47.0656881202 2.5831568072 27.8235204336
H 39.1725795808 14.664437078 27.8235642496
H 39.1726346631 2.5832488927 23.9196715864
H 49.7910846672 6.0406662277 21.1942490816
H 36.4475799069 11.2071410495 21.1941576619
H 36.4472668266 6.0405445004 30.5488759897
H 49.7909496867 11.2069200927 30.5487298499
H 38.4419435071 15.2954824345 23.2883962456
H 38.4418554507 1.9519559214 28.4547529207
H 47.7964771569 1.9520103689 23.2883242572
H 47.7966031617 15.2957654451 28.454826282
H 40.5361660333 3.9465934565 32.5431323886
H 45.7025994261 3.9464916019 19.1996793127
H 40.536036196 13.3011535953 19.1998291745
H 45.7025742513 13.3012177808 32.5435314693
H 40.5359525067 15.295659251 21.1943261719
H 45.7025294591 1.9520872764 21.1942632764
H 40.5360738409 1.9519044335 30.5488231738
H 45.7024393329 15.2954790022 30.5487958638
H 49.7909404971 3.9465863194 23.2882267766
H 36.4474876248 3.9465764192 28.4546213828
H 36.4472917254 13.301106133 23.2883649549
H 49.7909496936 13.3011130045 28.4547640213
H 38.4420374519 6.0407019684 32.5431494776
H 38.4419518585 11.2071688839 19.1995222827
H 47.7965307455 6.0407169153 19.1997683591
H 47.7966327657 11.207173727 32.5434290042
H 40.9110690982 2.311036581 28.0800576974
H 44.9806318325 15.6193531944 26.4536314784
H 45.3276379156 2.3112091822 23.6631780903
H 40.9109201919 14.9366386271 23.6631350124
H 43.7013190083 6.7625519637 18.8758910313
H 45.32750229 10.8323501912 32.184446853
H 42.5371631231 10.4851302884 18.8759438989
H 40.9109040032 6.41545097 32.1841630455
H 36.1236175824 9.2061041003 24.0103364774
H 49.4317426738 10.832083214 28.0799439523
H 36.1234114517 8.0418534665 27.7327079091
H 49.4321233168 6.4155300542 23.6631148878
H 36.8065357829 6.4157439429 28.0800177862
H 50.1146622024 10.4851082907 26.4536591851
H 36.806544217 10.8323779255 23.6632560672
H 50.1151227505 6.7625967698 25.2893638005
H 40.9108665171 10.8321323596 19.558867191
H 44.9805448248 9.206057942 32.8673679339
H 45.3275745406 6.4155109782 19.5588935455
H 41.2580004539 8.0416937839 32.8671671707
H 43.701393715 1.6282448889 24.0103688203
H 45.3275720362 14.9364439868 28.0799250108
H 42.537224863 1.6279744726 27.7327315833
H 42.5371525675 15.6196862371 24.0102115282
H 49.5348141977 10.9350212649 19.4560957978
H 36.3566767078 6.995730764 17.8297763696
H 36.7036801036 10.934938438 32.286898836
H 49.8816347059 6.995769523 33.9134338294
H 35.0774670283 15.3863898351 27.4997325212
H 36.7039227753 2.2082178187 23.5603363368
H 49.5349464496 2.2085489746 28.1826046014
H 51.160982605 15.3862701982 24.2434140096
H 45.4304459394 2.208211137 32.2869742257
H 41.4910141213 0.5822140201 19.1091266213
H 44.7473856558 16.6657194759 19.1092127253
H 41.4911388566 16.6655675616 32.6341515233
H 45.4303734129 15.0394882111 19.4562569051
H 40.808134183 2.208537222 19.4559971858
H 44.7475152999 1.8613935782 33.91329166
H 40.8081370358 15.0392794863 32.2872343659
H 49.8819749512 0.5822614892 27.4996884189
H 36.356637114 0.5820420053 24.2433313345
H 36.7037142851 15.0392892347 28.1827316204
H 49.5346886207 15.0393451069 23.5604268355
H 35.0774423675 10.251935741 32.6340801488
H 36.7039733387 6.3127871438 19.4559899659
H 51.1610859912 10.2520596001 19.1090917741
H 49.5345353887 6.3127016332 32.2872123337
H 41.2578523479 1.6281244206 26.4537063507
H 43.7013416304 15.6193780311 27.7327007789
H 44.9806889845 1.6282651343 25.2894595425
H 41.2579908504 15.6195910333 25.2894108901
H 44.9805018676 8.0417587353 18.8759389281
H 43.7012826812 10.4851514582 32.8674475527
H 41.257967873 9.2059260074 18.8758314784
H 42.5371709121 6.7625047602 32.8671829282
H 36.123523779 10.4853193128 25.2894892775
H 50.1146907888 9.2058625704 27.7327659786
H 36.1236372585 6.7625255057 26.4536653736
H 50.1151188491 8.0417718573 24.0101954396
H 49.8819310938 10.2520392237 17.8298559816
H 35.077623765 6.9956282713 19.1090891835
H 36.3567189612 10.2520262672 33.9132056527
H 51.1608324776 6.9956620975 32.634253571
H 36.3567144975 16.6655341666 27.4997387235
H 35.0775707594 1.8613258672 24.2431805723
H 51.1611690561 1.8614657495 27.4995490299
H 49.8819241706 16.6655544878 24.2434147823
H 44.7474341046 0.5820362377 32.6342805361
H 41.4911328924 1.8612504154 17.8298089126
H 44.747423618 15.386570698 17.8299989339
H 41.4912096032 15.3864841318 33.913424864
H 41.1670332244 31.912129627 12.5704588449
H 45.0711207695 19.8308143537 12.5702727767
H 45.0711349505 31.9122807272 4.6773199978
H 41.1670827702 19.8310487983 4.6774042977
H 47.0658285441 23.9196041306 14.6645768637
H 47.0658280543 27.8236268415 2.5833747457
H 39.1727644313 27.8236445618 14.6644755059
H 39.172781065 23.9195588761 2.5831732546
H 49.1597990193 29.8180500291 6.6716451805
H 37.0784551251 29.8179684717 10.575859986
H 49.1599185562 21.9248507358 10.5756444587
H 37.0787669359 21.9249926119 6.6716109852
H 49.1598841091 23.9190988868 12.5703999371
H 37.07852572 27.8233440413 12.5702354734
H 49.1599040888 27.8234993741 4.6771836754
H 37.078845513 23.919660334 4.6772747192
H 41.1672249464 29.8182196913 14.6646014935
H 45.0713346168 29.8181204584 2.5834231048
H 45.0714136975 21.9249850816 14.6645750458
H 41.1672499625 21.9250449069 2.5831740722
H 47.0657793399 31.9122678535 6.6717126328
H 47.0656881202 19.8308568038 10.5758204336
H 39.1725795808 31.912137078 10.5758642496
H 39.1726346631 19.8309488927 6.6719715864
H 49.7910846672 23.2883662277 3.9465490816
H 36.4475799069 28.4548410495 3.9464576619
H 36.4472668266 23.2882445004 13.3011759897
H 49.7909496867 28.4546200927 13.3010298499
H 38.4419435071 32.5431824345 6.0406962422
H 38.4418554507 19.1996559214 11.2070529207
H 47.7964771569 19.1997103689 6.0406242572
H 47.7966031617 32.5434654451 11.207126282
H 40.5361660333 21.1942934565 15.2954323886
H 45.7025994261 21.1941916019 1.9519793127
H 40.536036196 30.5488535953 1.9521291745
H 45.7025742513 30.5489177808 15.2958314693
H 40.5359525067 32.543359251 3.9466261685
H 45.7025294591 19.1997872764 3.9465632799
H 40.5360738409 19.1996044301 13.3011231738
H 45.7024393329 32.5431790022 13.3010958672
H 49.7909404971 21.1942863194 6.0405267766
H 36.4474876248 21.1942764192 11.2069213794
H 36.4472917254 30.548806133 6.0406649514
H 49.7909496936 30.5488130045 11.2070640213
H 38.4420374519 23.288401965 15.295449481
H 38.4419518585 28.4548688839 1.9518222827
H 47.7965307455 23.2884169118 1.9520683626
H 47.7966327657 28.4548737236 15.2957290042
H 40.9110690982 19.558736581 10.8323577008
H 44.9806318325 32.8670531944 9.2059314784
H 45.3276379156 19.5589091822 6.4154780903
H 40.9109201919 32.1843386306 6.4154350124
H 43.7013190083 24.0102519637 1.6281910313
H 45.32750229 28.0800501877 14.936746853
H 42.5371631231 27.7328302884 1.6282438989
H 40.9109040032 23.66315097 14.9364630455
H 36.1236175824 26.4538041003 6.7626364774
H 49.4317426738 28.079783214 10.8322439523
H 36.1234114517 25.28955347 10.4850079125
H 49.4321233168 23.6632300542 6.4154148844
H 36.8065357829 23.6634439464 10.8323177862
H 50.1146622024 27.7328082907 9.2059591851
H 36.806544217 28.080077922 6.4155560637
H 50.1151227505 24.0102967698 8.0416638005
H 40.9108665171 28.0798323596 2.311167191
H 44.9805448248 26.453757942 15.6196679339
H 45.3275745406 23.6632109782 2.3111935489
H 41.2580004539 25.2893937839 15.6194671707
H 43.701393715 18.8759448924 6.7626688203
H 45.3275720362 32.1841439868 10.8322250108
H 42.537224863 18.8756744726 10.4850315833
H 42.5371525675 32.8673862371 6.7625115282
H 49.5348141977 28.1827212649 2.2083957978
H 36.3566767078 24.243430764 0.5820763696
H 36.7036801036 28.182638438 15.039198836
H 49.8816347059 24.243469523 16.6657338294
H 35.0774670283 32.6340898351 10.2520325212
H 36.7039227753 19.4559178187 6.3126363368
H 49.5349464496 19.4562489746 10.9349046049
H 51.160982605 32.6339701982 6.9957140096
H 45.4304459394 19.455911137 15.0392742257
H 41.4910141213 17.8299140201 1.8614266213
H 44.7473856558 33.9134194759 1.8615127253
H 41.4911388566 33.913267565 15.3864515233
H 45.4303734129 32.2871882111 2.2085569051
H 40.808134183 19.4562372186 2.2082971858
H 44.7475152999 19.1090935782 16.66559166
H 40.8081370358 32.2869794863 15.0395343659
H 49.8819749512 17.8299614857 10.2519884189
H 36.356637114 17.8297420019 6.9956313345
H 36.7037142851 32.2869892347 10.9350316204
H 49.5346886207 32.2870451069 6.3127268355
H 35.0774423675 27.499635741 15.3863801523
H 36.7039733387 23.5604871404 2.2082899693
H 51.1610859912 27.4997596001 1.8613917741
H 49.5345353887 23.5604016332 15.0395123337
H 41.2578523479 18.8758244206 9.2060063507
H 43.7013416304 32.8670780276 10.4850007789
H 44.9806889845 18.8759651343 8.0417595425
H 41.2579908504 32.8672910333 8.0417108901
H 44.9805018676 25.2894587353 1.6282389247
H 43.7012826812 27.7328514582 15.6197475527
H 41.257967873 26.4536260074 1.6281314784
H 42.5371709121 24.0102047602 15.6194829282
H 36.123523779 27.7330193128 8.0417892775
H 50.1146907888 26.4535625738 10.4850659786
H 36.1236372585 24.0102255057 9.2059653736
H 50.1151188491 25.2894718573 6.762495443
H 49.8819310938 27.4997392237 0.5821559816
H 35.077623765 24.2433282678 1.8613891835
H 36.3567189612 27.4997262672 16.6655056527
H 51.1608324776 24.2433620975 15.386553571
H 36.3567144975 33.9132341666 10.2520387235
H 35.0775707594 19.1090258672 6.9954805723
H 51.1611690561 19.1091657495 10.2518490299
H 49.8819241706 33.9132544878 6.9957147823
H 44.7474341046 17.8297362377 15.3865805361
H 41.4911328924 19.1089504154 0.5821089126
H 44.747423618 32.634270698 0.5822989374
H 41.4912096032 32.6341841352 16.665724864
H 41.1670332244 31.912129627 29.8181588449
H 45.0711207695 19.8308143537 29.8179727767
H 45.0711349505 31.9122807272 21.9250199978
H 41.1670827702 19.8310487983 21.9251043011
H 47.0658285441 23.9196041306 31.9122768603
H 47.0658280543 27.8236268415 19.8310747457
H 39.1727644313 27.8236445618 31.9121755059
H 39.172781065 23.9195588761 19.8308732546
H 49.1597990193 29.8180500291 23.9193451771
H 37.0784551251 29.8179684717 27.823559986
H 49.1599185562 21.9248507358 27.8233444587
H 37.0787669359 21.9249926119 23.9193109818
H 49.1598841091 23.9190988868 29.8180999371
H 37.07852572 27.8233440413 29.8179354699
H 49.1599040888 27.8234993741 21.9248836754
H 37.078845513 23.919660334 21.9249747192
H 41.1672249464 29.8182196913 31.9123014935
H 45.0713346168 29.8181204584 19.8311231048
H 45.0714136975 21.9249850816 31.9122750424
H 41.1672499625 21.9250449069 19.8308740687
H 47.0657793399 31.9122678535 23.9194126328
H 47.0656881202 19.8308568038 27.8235204336
H 39.1725795808 31.912137078 27.8235642496
H 39.1726346631 19.8309488927 23.9196715864
H 49.7910846672 23.2883662277 21.1942490816
H 36.4475799069 28.4548410495 21.1941576619
H 36.4472668266 23.2882445004 30.5488759897
H 49.7909496867 28.4546200927 30.5487298499
H 38.4419435071 32.5431824345 23.2883962456
H 38.4418554507 19.1996559214 28.4547529207
H 47.7964771569 19.1997103689 23.2883242572
H 47.7966031617 32.5434654451 28.454826282
H 40.5361660333 21.1942934565 32.5431323886
H 45.7025994261 21.1941916019 19.1996793127
H 40.536036196 30.5488535953 19.1998291745
H 45.7025742513 30.5489177808 32.5435314693
H 40.5359525067 32.543359251 21.1943261719
H 45.7025294591 19.1997872764 21.1942632764
H 40.5360738409 19.1996044301 30.5488231738
H 45.7024393329 32.5431790022 30.5487958638
H 49.7909404971 21.1942863194 23.2882267766
H 36.4474876248 21.1942764192 28.4546213828
H 36.4472917254 30.548806133 23.2883649549
H 49.7909496936 30.5488130045 28.4547640213
H 38.4420374519 23.288401965 32.5431494776
H 38.4419518585 28.4548688839 19.1995222827
H 47.7965307455 23.2884169118 19.1997683591
H 47.7966327657 28.4548737236 32.5434290042
H 40.9110690982 19.558736581 28.0800576974
H 44.9806318325 32.8670531944 26.4536314784
H 45.3276379156 19.5589091822 23.6631780903
H 40.9109201919 32.1843386306 23.6631350124
H 43.7013190083 24.0102519637 18.8758910313
H 45.32750229 28.0800501877 32.184446853
H 42.5371631231 27.7328302884 18.8759438989
H 40.9109040032 23.66315097 32.1841630455
H 36.1236175824 26.4538041003 24.0103364774
H 49.4317426738 28.079783214 28.0799439523
H 36.1234114517 25.28955347 27.7327079091
H 49.4321233168 23.6632300542 23.6631148878
H 36.8065357829 23.6634439464 28.0800177862
H 50.1146622024 27.7328082907 26.4536591851
H 36.806544217 28.080077922 23.6632560672
H 50.1151227505 24.0102967698 25.2893638005
H 40.9108665171 28.0798323596 19.558867191
H 44.9805448248 26.453757942 32.8673679339
H 45.3275745406 23.6632109782 19.5588935455
H 41.2580004539 25.2893937839 32.8671671707
H 43.701393715 18.8759448924 24.0103688203
H 45.3275720362 32.1841439868 28.0799250108
H 42.537224863 18.8756744726 27.7327315833
H 42.5371525675 32.8673862371 24.0102115282
H 49.5348141977 28.1827212649 19.4560957978
H 36.3566767078 24.243430764 17.8297763696
H 36.7036801036 28.182638438 32.286898836
H 49.8816347059 24.243469523 33.9134338294
H 35.0774670283 32.6340898351 27.4997325212
H 36.7039227753 19.4559178187 23.5603363368
H 49.5349464496 19.4562489746 28.1826046014
H 51.160982605 32.6339701982 24.2434140096
H 45.4304459394 19.455911137 32.2869742257
H 41.4910141213 17.8299140201 19.1091266213
H 44.7473856558 33.9134194759 19.1092127253
H 41.4911388566 33.913267565 32.6341515233
H 45.4303734129 32.2871882111 19.4562569051
H 40.808134183 19.4562372186 19.4559971858
H 44.7475152999 19.1090935782 33.91329166
H 40.8081370358 32.2869794863 32.2872343659
H 49.8819749512 17.8299614857 27.4996884189
H 36.356637114 17.8297420019 24.2433313345
H 36.7037142851 32.2869892347 28.1827316204
H 49.5346886207 32.2870451069 23.5604268355
H 35.0774423675 27.499635741 32.6340801488
H 36.7039733387 23.5604871404 19.4559899659
H 51.1610859912 27.4997596001 19.1090917741
H 49.5345353887 23.5604016332 32.2872123337
H 41.2578523479 18.8758244206 26.4537063507
H 43.7013416304 32.8670780276 27.7327007789
H 44.9806889845 18.8759651343 25.2894595425
H 41.2579908504 32.8672910333 25.2894108901
H 44.9805018676 25.2894587353 18.8759389281
H 43.7012826812 27.7328514582 32.8674475527
H 41.257967873 26.4536260074 18.8758314784
H 42.5371709121 24.0102047602 32.8671829282
H 36.123523779 27.7330193128 25.2894892775
H 50.1146907888 26.4535625738 27.7327659786
H 36.1236372585 24.0102255057 26.4536653736
H 50.1151188491 25.2894718573 24.0101954396
H 49.8819310938 27.4997392237 17.8298559816
H 35.077623765 24.2433282678 19.1090891835
H 36.3567189612 27.4997262672 33.9132056527
H 51.1608324776 24.2433620975 32.634253571
H 36.3567144975 33.9132341666 27.4997387235
H 35.0775707594 19.1090258672 24.2431805723
H 51.1611690561 19.1091657495 27.4995490299
H 49.8819241706 33.9132544878 24.2434147823
H 44.7474341046 17.8297362377 32.6342805361
H 41.4911328924 19.1089504154 17.8298089126
H 44.747423618 32.634270698 17.8299989339
H 41.4912096032 32.6341841352 33.913424864
H 58.4147332244 14.664429627 12.5704588449
H 62.3188207695 2.5831143537 12.5702727767
H 62.3188349505 14.6645807272 4.6773199978
H 58.4147827667 2.5833487983 4.6774042977
H 64.3135285441 6.6719041306 14.6645768637
H 64.3135280543 10.5759268415 2.5833747457
H 56.4204644313 10.5759445618 14.6644755059
H 56.420481065 6.6718588726 2.5831732546
H 66.4074990193 12.5703500291 6.6716451805
H 54.3261551286 12.5702684717 10.575859986
H 66.4076185562 4.6771507358 10.5756444587
H 54.3264669359 4.6772926119 6.6716109852
H 66.4075841091 6.6713988868 12.5703999371
H 54.3262257234 10.5756440413 12.5702354734
H 66.4076040888 10.5757993741 4.6771836754
H 54.3265455165 6.6719603374 4.6772747192
H 58.4149249464 12.5705196913 14.6646014935
H 62.3190346202 12.5704204584 2.5834231048
H 62.3191136975 4.6772850816 14.6645750458
H 58.4149499625 4.6773449069 2.5831740722
H 64.3134793433 14.6645678535 6.6717126328
H 64.3133881237 2.5831568072 10.5758204336
H 56.4202795808 14.664437078 10.5758642496
H 56.4203346631 2.5832488927 6.6719715864
H 67.0387846672 6.0406662277 3.9465490816
H 53.6952799069 11.2071410495 3.9464576619
H 53.6949668232 6.0405445004 13.3011759897
H 67.0386496867 11.2069200927 13.3010298499
H 55.6896435071 15.2954824345 6.0406962422
H 55.6895554507 1.9519559214 11.2070529207
H 65.0441771569 1.9520103689 6.0406242572
H 65.0443031617 15.2957654451 11.207126282
H 57.7838660333 3.9465934565 15.2954323886
H 62.9502994261 3.9464916019 1.9519793127
H 57.783736196 13.3011535953 1.9521291745
H 62.9502742513 13.3012177808 15.2958314693
H 57.7836525033 15.295659251 3.9466261685
H 62.9502294591 1.9520872764 3.9465632799
H 57.7837738409 1.9519044335 13.3011231738
H 62.9501393295 15.2954790022 13.3010958672
H 67.0386404971 3.9465863194 6.0405267766
H 53.6951876248 3.9465764192 11.2069213794
H 53.6949917254 13.301106133 6.0406649514
H 67.0386496936 13.3011130045 11.2070640213
H 55.6897374519 6.0407019684 15.295449481
H 55.6896518585 11.2071688839 1.9518222827
H 65.0442307455 6.0407169153 1.9520683626
H 65.0443327691 11.207173727 15.2957290042
H 58.1587690982 2.311036581 10.8323577008
H 62.2283318325 15.6193531944 9.2059314784
H 62.5753379156 2.3112091822 6.4154780903
H 58.1586201919 14.9366386271 6.4154350124
H 60.9490190083 6.7625519637 1.6281910313
H 62.57520229 10.8323501912 14.936746853
H 59.7848631231 10.4851302884 1.6282438989
H 58.1586040032 6.41545097 14.9364630455
H 53.3713175824 9.2061041003 6.7626364774
H 66.6794426738 10.832083214 10.8322439523
H 53.3711114517 8.0418534665 10.4850079125
H 66.6798233168 6.4155300542 6.4154148844
H 54.0542357795 6.4157439429 10.8323177862
H 67.3623622024 10.4851082907 9.2059591851
H 54.054244217 10.8323779255 6.4155560637
H 67.3628227505 6.7625967698 8.0416638005
H 58.1585665171 10.8321323596 2.311167191
H 62.2282448213 9.206057942 15.6196679339
H 62.5752745406 6.4155109782 2.3111935489
H 58.5057004573 8.0416937839 15.6194671707
H 60.949093715 1.6282448889 6.7626688203
H 62.5752720397 14.9364439868 10.8322250108
H 59.7849248664 1.6279744726 10.4850315833
H 59.7848525675 15.6196862371 6.7625115282
H 66.7825141977 10.9350212649 2.2083957978
H 53.6043767078 6.995730764 0.5820763696
H 53.9513801002 10.934938438 15.039198836
H 67.1293347059 6.995769523 16.6657338294
H 52.3251670283 15.3863898351 10.2520325212
H 53.9516227753 2.2082178187 6.3126363368
H 66.7826464496 2.2085489746 10.9349046049
H 68.408682605 15.3862701982 6.9957140096
H 62.678145936 2.208211137 15.0392742257
H 58.7387141213 0.5822140201 1.8614266213
H 61.9950856558 16.6657194759 1.8615127253
H 58.7388388566 16.6655675616 15.3864515233
H 62.6780734129 15.0394882111 2.2085569051
H 58.055834183 2.208537222 2.2082971858
H 61.9952152999 1.8613935782 16.66559166
H 58.0558370392 15.0392794863 15.0395343659
H 67.1296749512 0.5822614892 10.2519884189
H 53.604337114 0.5820420053 6.9956313345
H 53.9514142886 15.0392892347 10.9350316204
H 66.7823886241 15.0393451069 6.3127268355
H 52.3251423641 10.251935741 15.3863801523
H 53.9516733387 6.3127871438 2.2082899693
H 68.4087859946 10.2520596001 1.8613917741
H 66.7822353887 6.3127016332 15.0395123337
H 58.5055523479 1.6281244206 9.2060063507
H 60.9490416269 15.6193780311 10.4850007789
H 62.2283889879 1.6282651343 8.0417595425
H 58.5056908504 15.6195910333 8.0417108901
H 62.2282018676 8.0417587353 1.6282389247
H 60.9489826812 10.4851514582 15.6197475527
H 58.505667873 9.2059260074 1.6281314784
H 59.7848709121 6.7625047602 15.6194829282
H 53.371223779 10.4853193128 8.0417892775
H 67.3623907888 9.2058625704 10.4850659786
H 53.3713372585 6.7625255057 9.2059653736
H 67.3628188456 8.0417718573 6.762495443
H 67.1296310938 10.2520392237 0.5821559816
H 52.325323765 6.9956282713 1.8613891835
H 53.6044189612 10.2520262672 16.6655056527
H 68.4085324776 6.9956620975 15.386553571
H 53.6044144975 16.6655341666 10.2520387235
H 52.3252707594 1.8613258672 6.9954805723
H 68.4088690561 1.8614657495 10.2518490299
H 67.1296241706 16.6655544878 6.9957147823
H 61.9951341046 0.5820362377 15.3865805361
H 58.7388328924 1.8612504154 0.5821089126
H 61.995123618 15.386570698 0.5822989374
H 58.7389096032 15.3864841318 16.665724864
H 58.4147332244 14.664429627 29.8181588449
H 62.3188207695 2.5831143537 29.8179727767
H 62.3188349505 14.6645807272 21.9250199978
H 58.4147827667 2.5833487983 21.9251043011
H 64.3135285441 6.6719041306 31.9122768603
H 64.3135280543 10.5759268415 19.8310747457
H 56.4204644313 10.5759445618 31.9121755059
H 56.420481065 6.6718588726 19.8308732546
H 66.4074990193 12.5703500291 23.9193451771
H 54.3261551286 12.5702684717 27.823559986
H 66.4076185562 4.6771507358 27.8233444587
H 54.3264669359 4.6772926119 23.9193109818
H 66.4075841091 6.6713988868 29.8180999371
H 54.3262257234 10.5756440413 29.8179354699
H 66.4076040888 10.5757993741 21.9248836754
H 54.3265455165 6.6719603374 21.9249747192
H 58.4149249464 12.5705196913 31.9123014935
H 62.3190346202 12.5704204584 19.8311231048
H 62.3191136975 4.6772850816 31.9122750424
H 58.4149499625 4.6773449069 19.8308740687
H 64.3134793433 14.6645678535 23.9194126328
H 64.3133881237 2.5831568072 27.8235204336
H 56.4202795808 14.664437078 27.8235642496
H 56.4203346631 2.5832488927 23.9196715864
H 67.0387846672 6.0406662277 21.1942490816
H 53.6952799069 11.2071410495 21.1941576619
H 53.6949668232 6.0405445004 30.5488759897
H 67.0386496867 11.2069200927 30.5487298499
H 55.6896435071 15.2954824345 23.2883962456
H 55.6895554507 1.9519559214 28.4547529207
H 65.0441771569 1.9520103689 23.2883242572
H 65.0443031617 15.2957654451 28.454826282
H 57.7838660333 3.9465934565 32.5431323886
H 62.9502994261 3.9464916019 19.1996793127
H 57.783736196 13.3011535953 19.1998291745
H 62.9502742513 13.3012177808 32.5435314693
H 57.7836525033 15.295659251 21.1943261719
H 62.9502294591 1.9520872764 21.1942632764
H 57.7837738409 1.9519044335 30.5488231738
H 62.9501393295 15.2954790022 30.5487958638
H 67.0386404971 3.9465863194 23.2882267766
H 53.6951876248 3.9465764192 28.4546213828
H 53.6949917254 13.301106133 23.2883649549
H 67.0386496936 13.3011130045 28.4547640213
H 55.6897374519 6.0407019684 32.5431494776
H 55.6896518585 11.2071688839 19.1995222827
H 65.0442307455 6.0407169153 19.1997683591
H 65.0443327691 11.207173727 32.5434290042
H 58.1587690982 2.311036581 28.0800576974
H 62.2283318325 15.6193531944 26.4536314784
H 62.5753379156 2.3112091822 23.6631780903
H 58.1586201919 14.9366386271 23.6631350124
H 60.9490190083 6.7625519637 18.8758910313
H 62.57520229 10.8323501912 32.184446853
H 59.7848631231 10.4851302884 18.8759438989
H 58.1586040032 6.41545097 32.1841630455
H 53.3713175824 9.2061041003 24.0103364774
H 66.6794426738 10.832083214 28.0799439523
H 53.3711114517 8.0418534665 27.7327079091
H 66.6798233168 6.4155300542 23.6631148878
H 54.0542357795 6.4157439429 28.0800177862
H 67.3623622024 10.4851082907 26.4536591851
H 54.054244217 10.8323779255 23.6632560672
H 67.3628227505 6.7625967698 25.2893638005
H 58.1585665171 10.8321323596 19.558867191
H 62.2282448213 9.206057942 32.8673679339
H 62.5752745406 6.4155109782 19.5588935455
H 58.5057004573 8.0416937839 32.8671671707
H 60.949093715 1.6282448889 24.0103688203
H 62.5752720397 14.9364439868 28.0799250108
H 59.7849248664 1.6279744726 27.7327315833
H 59.7848525675 15.6196862371 24.0102115282
H 66.7825141977 10.9350212649 19.4560957978
H 53.6043767078 6.995730764 17.8297763696
H 53.9513801002 10.934938438 32.286898836
H 67.1293347059 6.995769523 33.9134338294
H 52.3251670283 15.3863898351 27.4997325212
H 53.9516227753 2.2082178187 23.5603363368
H 66.7826464496 2.2085489746 28.1826046014
H 68.408682605 15.3862701982 24.2434140096
H 62.678145936 2.208211137 32.2869742257
H 58.7387141213 0.5822140201 19.1091266213
H 61.9950856558 16.6657194759 19.1092127253
H 58.7388388566 16.6655675616 32.6341515233
H 62.6780734129 15.0394882111 19.4562569051
H 58.055834183 2.208537222 19.4559971858
H 61.9952152999 1.8613935782 33.91329166
H 58.0558370392 15.0392794863 32.2872343659
H 67.1296749512 0.5822614892 27.4996884189
H 53.604337114 0.5820420053 24.2433313345
H 53.9514142886 15.0392892347 28.1827316204
H 66.7823886241 15.0393451069 23.5604268355
H 52.3251423641 10.251935741 32.6340801488
H 53.9516733387 6.3127871438 19.4559899659
H 68.4087859946 10.2520596001 19.1090917741
H 66.7822353887 6.3127016332 32.2872123337
H 58.5055523479 1.6281244206 26.4537063507
H 60.9490416269 15.6193780311 27.7327007789
H 62.2283889879 1.6282651343 25.2894595425
H 58.5056908504 15.6195910333 25.2894108901
H 62.2282018676 8.0417587353 18.8759389281
H 60.9489826812 10.4851514582 32.8674475527
H 58.505667873 9.2059260074 18.8758314784
H 59.7848709121 6.7625047602 32.8671829282
H 53.371223779 10.4853193128 25.2894892775
H 67.3623907888 9.2058625704 27.7327659786
H 53.3713372585 6.7625255057 26.4536653736
H 67.3628188456 8.0417718573 24.0101954396
H 67.1296310938 10.2520392237 17.8298559816
H 52.325323765 6.9956282713 19.1090891835
H 53.6044189612 10.2520262672 33.9132056527
H 68.4085324776 6.9956620975 32.634253571
H 53.6044144975 16.6655341666 27.4997387235
H 52.3252707594 1.8613258672 24.2431805723
H 68.4088690561 1.8614657495 27.4995490299
H 67.1296241706 16.6655544878 24.2434147823
H 61.9951341046 0.5820362377 32.6342805361
H 58.7388328924 1.8612504154 17.8298089126
H 61.995123618 15.386570698 17.8299989339
H 58.7389096032 15.3864841318 33.913424864
H 58.4147332244 31.912129627 12.5704588449
H 62.3188207695 19.8308143537 12.5702727767
H 62.3188349505 31.9122807272 4.6773199978
H 58.4147827667 19.8310487983 4.6774042977
H 64.3135285441 23.9196041306 14.6645768637
H 64.3135280543 27.8236268415 2.5833747457
H 56.4204644313 27.8236445618 14.6644755059
H 56.420481065 23.9195588761 2.5831732546
H 66.4074990193 29.8180500291 6.6716451805
H 54.3261551286 29.8179684717 10.575859986
H 66.4076185562 21.9248507358 10.5756444587
H 54.3264669359 21.9249926119 6.6716109852
H 66.4075841091 23.9190988868 12.5703999371
H 54.3262257234 27.8233440413 12.5702354734
H 66.4076040888 27.8234993741 4.6771836754
H 54.3265455165 23.919660334 4.6772747192
H 58.4149249464 29.8182196913 14.6646014935
H 62.3190346202 29.8181204584 2.5834231048
H 62.3191136975 21.9249850816 14.6645750458
H 58.4149499625 21.9250449069 2.5831740722
H 64.3134793433 31.9122678535 6.6717126328
H 64.3133881237 19.8308568038 10.5758204336
H 56.4202795808 31.912137078 10.5758642496
H 56.4203346631 19.8309488927 6.6719715864
H 67.0387846672 23.2883662277 3.9465490816
H 53.6952799069 28.4548410495 3.9464576619
H 53.6949668232 23.2882445004 13.3011759897
H 67.0386496867 28.4546200927 13.3010298499
H 55.6896435071 32.5431824345 6.0406962422
H 55.6895554507 19.1996559214 11.2070529207
H 65.0441771569 19.1997103689 6.0406242572
H 65.0443031617 32.5434654451 11.207126282
H 57.7838660333 21.1942934565 15.2954323886
H 62.9502994261 21.1941916019 1.9519793127
H 57.783736196 30.5488535953 1.9521291745
H 62.9502742513 30.5489177808 15.2958314693
H 57.7836525033 32.543359251 3.9466261685
H 62.9502294591 19.1997872764 3.9465632799
H 57.7837738409 19.1996044301 13.3011231738
H 62.9501393295 32.5431790022 13.3010958672
H 67.0386404971 21.1942863194 6.0405267766
H 53.6951876248 21.1942764192 11.2069213794
H 53.6949917254 30.548806133 6.0406649514
H 67.0386496936 30.5488130045 11.2070640213
H 55.6897374519 23.288401965 15.295449481
H 55.6896518585 28.4548688839 1.9518222827
H 65.0442307455 23.2884169118 1.9520683626
H 65.0443327691 28.4548737236 15.2957290042
H 58.1587690982 19.558736581 10.8323577008
H 62.2283318325 32.8670531944 9.2059314784
H 62.5753379156 19.5589091822 6.4154780903
H 58.1586201919 32.1843386306 6.4154350124
H 60.9490190083 24.0102519637 1.6281910313
H 62.57520229 28.0800501877 14.936746853
H 59.7848631231 27.7328302884 1.6282438989
H 58.1586040032 23.66315097 14.9364630455
H 53.3713175824 26.4538041003 6.7626364774
H 66.6794426738 28.079783214 10.8322439523
H 53.3711114517 25.28955347 10.4850079125
H 66.6798233168 23.6632300542 6.4154148844
H 54.0542357795 23.6634439464 10.8323177862
H 67.3623622024 27.7328082907 9.2059591851
H 54.054244217 28.080077922 6.4155560637
H 67.3628227505 24.0102967698 8.0416638005
H 58.1585665171 28.0798323596 2.311167191
H 62.2282448213 26.453757942 15.6196679339
H 62.5752745406 23.6632109782 2.3111935489
H 58.5057004573 25.2893937839 15.6194671707
H 60.949093715 18.8759448924 6.7626688203
H 62.5752720397 32.1841439868 10.8322250108
H 59.7849248664 18.8756744726 10.4850315833
H 59.7848525675 32.8673862371 6.7625115282
H 66.7825141977 28.1827212649 2.2083957978
H 53.6043767078 24.243430764 0.5820763696
H 53.9513801002 28.182638438 15.039198836
H 67.1293347059 24.243469523 16.6657338294
H 52.3251670283 32.6340898351 10.2520325212
H 53.9516227753 19.4559178187 6.3126363368
H 66.7826464496 19.4562489746 10.9349046049
H 68.408682605 32.6339701982 6.9957140096
H 62.678145936 19.455911137 15.0392742257
H 58.7387141213 17.8299140201 1.8614266213
H 61.9950856558 33.9134194759 1.8615127253
H 58.7388388566 33.913267565 15.3864515233
H 62.6780734129 32.2871882111 2.2085569051
H 58.055834183 19.4562372186 2.2082971858
H 61.9952152999 19.1090935782 16.66559166
H 58.0558370392 32.2869794863 15.0395343659
H 67.1296749512 17.8299614857 10.2519884189
H 53.604337114 17.8297420019 6.9956313345
H 53.9514142886 32.2869892347 10.9350316204
H 66.7823886241 32.2870451069 6.3127268355
H 52.3251423641 27.499635741 15.3863801523
H 53.9516733387 23.5604871404 2.2082899693
H 68.4087859946 27.4997596001 1.8613917741
H 66.7822353887 23.5604016332 15.0395123337
H 58.5055523479 18.8758244206 9.2060063507
H 60.9490416269 32.8670780276 10.4850007789
H 62.2283889879 18.8759651343 8.0417595425
H 58.5056908504 32.8672910333 8.0417108901
H 62.2282018676 25.2894587353 1.6282389247
H 60.9489826812 27.7328514582 15.6197475527
H 58.505667873 26.4536260074 1.6281314784
H 59.7848709121 24.0102047602 15.6194829282
H 53.371223779 27.7330193128 8.0417892775
H 67.3623907888 26.4535625738 10.4850659786
H 53.3713372585 24.0102255057 9.2059653736
H 67.3628188456 25.2894718573 6.762495443
H 67.1296310938 27.4997392237 0.5821559816
H 52.325323765 24.2433282678 1.8613891835
H 53.6044189612 27.4997262672 16.6655056527
H 68.4085324776 24.2433620975 15.386553571
H 53.6044144975 33.9132341666 10.2520387235
H 52.3252707594 19.1090258672 6.9954805723
H 68.4088690561 19.1091657495 10.2518490299
H 67.1296241706 33.9132544878 6.9957147823
H 61.9951341046 17.8297362377 15.3865805361
H 58.7388328924 19.1089504154 0.5821089126
H 61.995123618 32.634270698 0.5822989374
H 58.7389096032 32.6341841352 16.665724864
H 58.4147332244 31.912129627 29.8181588449
H 62.3188207695 19.8308143537 29.8179727767
H 62.3188349505 31.9122807272 21.9250199978
H 58.4147827667 19.8310487983 21.9251043011
H 64.3135285441 23.9196041306 31.9122768603
H 64.3135280543 27.8236268415 19.8310747457
H 56.4204644313 27.8236445618 31.9121755059
H 56.420481065 23.9195588761 19.8308732546
H 66.4074990193 29.8180500291 23.9193451771
H 54.3261551286 29.8179684717 27.823559986
H 66.4076185562 21.9248507358 27.8233444587
H 54.3264669359 21.9249926119 23.9193109818
H 66.4075841091 23.9190988868 29.8180999371
H 54.3262257234 27.8233440413 29.8179354699
H 66.4076040888 27.8234993741 21.9248836754
H 54.3265455165 23.919660334 21.9249747192
H 58.4149249464 29.8182196913 31.9123014935
H 62.3190346202 29.8181204584 19.8311231048
H 62.3191136975 21.9249850816 31.9122750424
H 58.4149499625 21.9250449069 19.8308740687
H 64.3134793433 31.9122678535 23.9194126328
H 64.3133881237 19.8308568038 27.8235204336
H 56.4202795808 31.912137078 27.8235642496
H 56.4203346631 19.8309488927 23.9196715864
H 67.0387846672 23.2883662277 21.1942490816
H 53.6952799069 28.4548410495 21.1941576619
H 53.6949668232 23.2882445004 30.5488759897
H 67.0386496867 28.4546200927 30.5487298499
H 55.6896435071 32.5431824345 23.2883962456
H 55.6895554507 19.1996559214 28.4547529207
H 65.0441771569 19.1997103689 23.2883242572
H 65.0443031617 32.5434654451 28.454826282
H 57.7838660333 21.1942934565 32.5431323886
H 62.9502994261 21.1941916019 19.1996793127
H 57.783736196 30.5488535953 19.1998291745
H 62.9502742513 30.5489177808 32.5435314693
H 57.7836525033 32.543359251 21.1943261719
H 62.9502294591 19.1997872764 21.1942632764
H 57.7837738409 19.1996044301 30.5488231738
H 62.9501393295 32.5431790022 30.5487958638
H 67.0386404971 21.1942863194 23.2882267766
H 53.6951876248 21.1942764192 28.4546213828
H 53.6949917254 30.548806133 23.2883649549
H 67.0386496936 30.5488130045 28.4547640213
H 55.6897374519 23.288401965 32.5431494776
H 55.6896518585 28.4548688839 19.1995222827
H 65.0442307455 23.2884169118 19.1997683591
H 65.0443327691 28.4548737236 32.5434290042
H 58.1587690982 19.558736581 28.0800576974
H 62.2283318325 32.8670531944 26.4536314784
H 62.5753379156 19.5589091822 23.6631780903
H 58.1586201919 32.1843386306 23.6631350124
H 60.9490190083 24.0102519637 18.8758910313
H 62.57520229 28.0800501877 32.184446853
H 59.7848631231 27.7328302884 18.8759438989
H 58.1586040032 23.66315097 32.1841630455
H 53.3713175824 26.4538041003 24.0103364774
H 66.6794426738 28.079783214 28.0799439523
H 53.3711114517 25.28955347 27.7327079091
H 66.6798233168 23.6632300542 23.6631148878
H 54.0542357795 23.6634439464 28.0800177862
H 67.3623622024 27.7328082907 26.4536591851
H 54.054244217 28.080077922 23.6632560672
H 67.3628227505 24.0102967698 25.2893638005
H 58.1585665171 28.0798323596 19.558867191
H 62.2282448213 26.453757942 32.8673679339
H 62.5752745406 23.6632109782 19.5588935455
H 58.5057004573 25.2893937839 32.8671671707
H 60.949093715 18.8759448924 24.0103688203
H 62.5752720397 32.1841439868 28.0799250108
H 59.7849248664 18.8756744726 27.7327315833
H 59.7848525675 32.8673862371 24.0102115282
H 66.7825141977 28.1827212649 19.4560957978
H 53.6043767078 24.243430764 17.8297763696
H 53.9513801002 28.182638438 32.286898836
H 67.1293347059 24.243469523 33.9134338294
H 52.3251670283 32.6340898351 27.4997325212
H 53.9516227753 19.4559178187 23.5603363368
H 66.7826464496 19.4562489746 28.1826046014
H 68.408682605 32.6339701982 24.2434140096
H 62.678145936 19.455911137 32.2869742257
H 58.7387141213 17.8299140201 19.1091266213
H 61.9950856558 33.9134194759 19.1092127253
H 58.7388388566 33.913267565 32.6341515233
H 62.6780734129 32.2871882111 19.4562569051
H 58.055834183 19.4562372186 19.4559971858
H 61.9952152999 19.1090935782 33.91329166
H 58.0558370392 32.2869794863 32.2872343659
H 67.1296749512 17.8299614857 27.4996884189
H 53.604337114 17.8297420019 24.2433313345
H 53.9514142886 32.2869892347 28.1827316204
H 66.7823886241 32.2870451069 23.5604268355
H 52.3251423641 27.499635741 32.6340801488
H 53.9516733387 23.5604871404 19.4559899659
H 68.4087859946 27.4997596001 19.1090917741
H 66.7822353887 23.5604016332 32.2872123337
H 58.5055523479 18.8758244206 26.4537063507
H 60.9490416269 32.8670780276 27.7327007789
H 62.2283889879 18.8759651343 25.2894595425
H 58.5056908504 32.8672910333 25.2894108901
H 62.2282018676 25.2894587353 18.8759389281
H 60.9489826812 27.7328514582 32.8674475527
H 58.505667873 26.4536260074 18.8758314784
H 59.7848709121 24.0102047602 32.8671829282
H 53.371223779 27.7330193128 25.2894892775
H 67.3623907888 26.4535625738 27.7327659786
H 53.3713372585 24.0102255057 26.4536653736
H 67.3628188456 25.2894718573 24.0101954396
H 67.1296310938 27.4997392237 17.8298559816
H 52.325323765 24.2433282678 19.1090891835
H 53.6044189612 27.4997262672 33.9132056527
H 68.4085324776 24.2433620975 32.634253571
H 53.6044144975 33.9132341666 27.4997387235
H 52.3252707594 19.1090258672 24.2431805723
H 68.4088690561 19.1091657495 27.4995490299
H 67.1296241706 33.9132544878 24.2434147823
H 61.9951341046 17.8297362377 32.6342805361
H 58.7388328924 19.1089504154 17.8298089126
H 61.995123618 32.634270698 17.8299989339
H 58.7389096032 32.6341841352 33.913424864
C 40.9990575671 0.120408667 10.7440318807
C 45.2393990929 17.1270738705 10.7439677986
C 45.239438804 0.1205870669 6.5036837008
C 40.9990289463 17.1272719466 6.5036861397
C 45.23942424 6.5037147122 0.1205611436
C 45.2393972439 10.7440828615 17.1273806381
C 40.9991191035 10.7440424536 0.1205345476
C 40.9990800133 6.5036293982 17.1271080244
C 34.6158916595 10.744084024 6.5036494193
C 51.6224004781 10.7439046479 10.7439990204
C 34.6158797896 6.5036418027 10.7439429068
C 51.6227768333 6.5037243157 6.5035795592
C 49.6229890349 8.7443962347 2.1202198705
C 36.6156474358 8.5034051508 2.1201122552
C 36.6155254083 8.7443171747 15.127461909
C 49.6228042051 8.5033333865 15.127587148
C 36.615541121 15.1274365445 8.7443966452
C 36.6155785657 2.1201266605 8.5032633057
C 49.6229932537 2.1202508508 8.7442691122
C 49.6228957628 15.1275013062 8.5033629732
C 43.2398019368 2.1200940658 15.127522138
C 42.9987814214 2.1202272042 2.1201932332
C 43.2397223421 15.1276196875 2.1203183894
C 42.9987962544 15.1275011199 15.127619177
C 40.8876740834 15.439271166 11.8414446655
C 45.3505832622 1.808238102 11.8413395787
C 45.3505965877 15.4394464096 5.4062710437
C 40.8877053638 1.8084588208 5.4063592933
C 46.3368538758 6.3924696999 15.4394297621
C 46.336841523 10.8553389917 1.8085202295
C 39.9017302481 10.8553369806 15.4393682361
C 39.9017159636 6.392424028 1.8082826493
C 49.9346810145 11.8413819598 6.392288637
C 36.3035881664 11.8412816127 10.8552516045
C 49.9347750903 5.4061136308 10.855127421
C 36.303925973 5.4063049665 6.3922555456
C 49.9347321505 6.3921385648 11.8413510691
C 36.3036092224 10.8551171241 11.8413360361
C 49.9347548208 10.8552530153 5.4061663846
C 36.3039546973 6.3925003387 5.4062009973
C 40.8878245351 11.8415068193 15.4394310591
C 45.3507206815 11.841462917 1.8085418857
C 45.3507638007 5.4062893193 15.4394308694
C 40.8878287021 5.4062870047 1.8082874408
C 46.3367873963 15.4394276475 6.392346848
C 46.3367311722 1.8082698516 10.8552333564
C 39.901568413 15.4392922565 10.8552859032
C 39.9015965233 1.8084000303 6.392507224
C 49.5116935834 6.815534311 3.2175792392
C 36.7269447259 10.4322797136 3.2174732935
C 36.7267507065 6.8154520808 14.0300811118
C 49.5115642291 10.4321178888 14.0300759444
C 37.7129306766 15.0161270465 6.8155437213
C 37.7129211248 2.2313836531 10.4321527533
C 48.5254768275 2.2314484113 6.8154641646
C 48.5255248382 15.0163071574 10.4322334759
C 41.3109915837 3.2175430811 15.0161212617
C 44.9276905244 3.2175712397 2.2314247164
C 41.3108869695 14.0301515066 2.231544957
C 44.9276703619 14.0301271494 15.0163659686
C 41.3108381861 15.0162780915 3.217666209
C 44.9276561498 2.2314840002 3.2175901535
C 41.3109662985 2.2313534282 14.0300709322
C 44.9276049448 15.0161483405 14.0301345452
C 49.5115900903 3.217604683 6.8154021108
C 36.7268608779 3.2175694528 10.4320822136
C 36.7267505133 14.0300365886 6.8155478194
C 49.5115764371 14.0301096878 10.4322134376
C 37.7129830302 6.815513631 15.0161165116
C 37.7130312755 10.4322801551 2.2312946308
C 48.5255254177 6.8155718868 2.2314791777
C 48.5255186394 10.4322413375 15.0162919725
C 41.4489851363 1.4936083907 10.2941685385
C 44.789558352 15.753851173 10.2941015553
C 44.7896094121 1.4937931411 6.9535832287
C 41.4489491266 15.7540722091 6.9535166733
C 44.7895215247 6.9535679576 1.4937631888
C 44.7894989613 10.2942296506 15.7541689377
C 41.4489665019 10.2941249432 1.4937394525
C 41.4489661363 6.9534976387 15.7539018605
C 35.9891162647 10.2942927461 6.9535949606
C 50.2491604052 10.2940625755 10.2941377169
C 35.9890826351 6.9536278037 10.2941237842
C 50.2495635874 6.9535833771 6.9534696043
C 50.0728896736 10.1176002944 1.6703597122
C 36.1657957979 7.1301701935 1.67029048
C 36.1656599688 10.117527823 15.577326669
C 50.0726292643 7.1301371159 15.5775307852
C 36.1656779754 15.5773483321 10.1175926433
C 36.1657427681 1.6702510517 7.130041843
C 50.0729565463 1.6704497521 10.1174766732
C 50.072798892 15.5773469454 7.1301586376
C 44.613014503 1.6702515277 15.5774314557
C 41.6255471333 1.6703751455 1.670327497
C 44.6129436564 15.5775345176 1.6704922849
C 41.6255936987 15.5773913065 15.5775098016
C 40.9990575671 0.120408667 27.9917318773
C 45.2393990929 17.1270738705 27.9916677986
C 45.239438804 0.1205870669 23.7513837008
C 40.9990289463 17.1272719466 23.7513861397
C 45.23942424 6.5037147122 17.368261147
C 45.2393972439 10.7440828615 34.3750806416
C 40.9991191035 10.7440424536 17.3682345476
C 40.9990800133 6.5036293982 34.3748080244
C 34.6158916595 10.744084024 23.7513494193
C 51.6224004781 10.7439046479 27.9916990204
C 34.6158797896 6.5036418027 27.9916429068
C 51.6227768333 6.5037243157 23.7512795558
C 49.6229890349 8.7443962347 19.3679198705
C 36.6156474358 8.5034051508 19.3678122552
C 36.6155254083 8.7443171747 32.375161909
C 49.6228042051 8.5033333865 32.375287148
C 36.615541121 15.1274365445 25.9920966452
C 36.6155785657 2.1201266605 25.7509633057
C 49.6229932537 2.1202508508 25.9919691122
C 49.6228957628 15.1275013062 25.7510629732
C 43.2398019368 2.1200940658 32.3752221414
C 42.9987814214 2.1202272042 19.3678932366
C 43.2397223421 15.1276196875 19.3680183894
C 42.9987962544 15.1275011199 32.375319177
C 40.8876740834 15.439271166 29.0891446655
C 45.3505832622 1.808238102 29.0890395753
C 45.3505965877 15.4394464096 22.6539710437
C 40.8877053638 1.8084588208 22.6540592933
C 46.3368538758 6.3924696999 32.6871297621
C 46.336841523 10.8553389917 19.0562202295
C 39.9017302481 10.8553369806 32.6870682361
C 39.9017159636 6.392424028 19.0559826493
C 49.9346810145 11.8413819598 23.639988637
C 36.3035881664 11.8412816127 28.102951601
C 49.9347750903 5.4061136308 28.102827421
C 36.303925973 5.4063049665 23.6399555456
C 49.9347321505 6.3921385648 29.0890510657
C 36.3036092224 10.8551171241 29.0890360361
C 49.9347548208 10.8552530153 22.6538663812
C 36.3039546973 6.3925003387 22.6539009939
C 40.8878245351 11.8415068193 32.6871310591
C 45.3507206815 11.841462917 19.0562418857
C 45.3507638007 5.4062893193 32.6871308694
C 40.8878287021 5.4062870047 19.0559874408
C 46.3367873963 15.4394276475 23.640046848
C 46.3367311722 1.8082698516 28.1029333564
C 39.901568413 15.4392922565 28.1029859032
C 39.9015965233 1.8084000303 23.640207224
C 49.5116935834 6.815534311 20.4652792357
C 36.7269447259 10.4322797136 20.4651732935
C 36.7267507065 6.8154520808 31.2777811118
C 49.5115642291 10.4321178888 31.2777759444
C 37.7129306766 15.0161270465 24.0632437213
C 37.7129211248 2.2313836531 27.6798527533
C 48.5254768275 2.2314484113 24.0631641646
C 48.5255248382 15.0163071574 27.6799334759
C 41.3109915837 3.2175430811 32.2638212617
C 44.9276905244 3.2175712397 19.4791247164
C 41.3108869695 14.0301515066 19.479244957
C 44.9276703619 14.0301271494 32.2640659686
C 41.3108381861 15.0162780915 20.4653662124
C 44.9276561498 2.2314840002 20.4652901535
C 41.3109662985 2.2313534282 31.2777709288
C 44.9276049448 15.0161483405 31.2778345452
C 49.5115900903 3.217604683 24.0631021108
C 36.7268608779 3.2175694528 27.6797822136
C 36.7267505133 14.0300365886 24.0632478194
C 49.5115764371 14.0301096878 27.6799134341
C 37.7129830302 6.815513631 32.2638165116
C 37.7130312755 10.4322801551 19.4789946308
C 48.5255254177 6.8155718868 19.4791791777
C 48.5255186394 10.4322413375 32.2639919725
C 41.4489851363 1.4936083907 27.541868542
C 44.789558352 15.753851173 27.5418015553
C 44.7896094121 1.4937931411 24.2012832253
C 41.4489491266 15.7540722091 24.2012166733
C 44.7895215247 6.9535679576 18.7414631888
C 44.7894989613 10.2942296506 33.0018689377
C 41.4489665019 10.2941249432 18.7414394525
C 41.4489661363 6.9534976387 33.0016018605
C 35.9891162647 10.2942927461 24.2012949606
C 50.2491604052 10.2940625755 27.5418377169
C 35.9890826351 6.9536278037 27.5418237842
C 50.2495635874 6.9535833771 24.2011696043
C 50.0728896736 10.1176002944 18.9180597088
C 36.1657957979 7.1301701935 18.91799048
C 36.1656599688 10.117527823 32.825026669
C 50.0726292643 7.1301371159 32.8252307886
C 36.1656779754 15.5773483321 27.3652926433
C 36.1657427681 1.6702510517 24.377741843
C 50.0729565463 1.6704497521 27.3651766732
C 50.072798892 15.5773469454 24.3778586376
C 44.613014503 1.6702515277 32.8251314591
C 41.6255471333 1.6703751455 18.9180274935
C 44.6129436564 15.5775345176 18.9181922884
C 41.6255936987 15.5773913065 32.8252098016
C 40.9990575671 17.368108667 10.7440318807
C 45.2393990929 34.3747738705 10.7439677986
C 45.239438804 17.3682870669 6.5036837008
C 40.9990289463 34.3749719466 6.5036861397
C 45.23942424 23.7514147122 0.1205611436
C 45.2393972439 27.9917828615 17.1273806381
C 40.9991191035 27.9917424536 0.1205345476
C 40.9990800133 23.7513293982 17.1271080244
C 34.6158916595 27.991784024 6.5036494193
C 51.6224004781 27.9916046479 10.7439990204
C 34.6158797896 23.7513418027 10.7439429068
C 51.6227768333 23.7514243157 6.5035795592
C 49.6229890349 25.9920962347 2.1202198705
C 36.6156474358 25.7511051508 2.1201122552
C 36.6155254083 25.9920171747 15.127461909
C 49.6228042051 25.75103339 15.127587148
C 36.615541121 32.3751365445 8.7443966452
C 36.6155785657 19.3678266605 8.5032633057
C 49.6229932537 19.3679508508 8.7442691122
C 49.6228957628 32.3752013097 8.5033629732
C 43.2398019368 19.3677940658 15.127522138
C 42.9987814214 19.3679272042 2.1201932332
C 43.2397223421 32.3753196875 2.1203183894
C 42.9987962544 32.3752011199 15.127619177
C 40.8876740834 32.686971166 11.8414446655
C 45.3505832622 19.0559381054 11.8413395787
C 45.3505965877 32.6871464096 5.4062710437
C 40.8877053638 19.0561588243 5.4063592933
C 46.3368538758 23.6401696999 15.4394297621
C 46.336841523 28.1030389917 1.8085202295
C 39.9017302481 28.1030369806 15.4393682361
C 39.9017159636 23.6401240245 1.8082826493
C 49.9346810145 29.0890819598 6.392288637
C 36.3035881664 29.0889816092 10.8552516045
C 49.9347750903 22.6538136308 10.855127421
C 36.303925973 22.6540049665 6.3922555456
C 49.9347321505 23.6398385648 11.8413510691
C 36.3036092224 28.1028171241 11.8413360361
C 49.9347548208 28.1029530153 5.4061663846
C 36.3039546973 23.6402003387 5.4062009973
C 40.8878245351 29.0892068193 15.4394310591
C 45.3507206815 29.089162917 1.8085418857
C 45.3507638007 22.6539893193 15.4394308694
C 40.8878287021 22.6539870047 1.8082874408
C 46.3367873963 32.6871276475 6.392346848
C 46.3367311722 19.0559698516 10.8552333564
C 39.901568413 32.6869922565 10.8552859032
C 39.9015965233 19.0561000303 6.392507224
C 49.5116935834 24.063234311 3.2175792392
C 36.7269447259 27.6799797136 3.2174732935
C 36.7267507065 24.0631520808 14.0300811118
C 49.5115642291 27.6798178888 14.0300759444
C 37.7129306766 32.2638270465 6.8155437213
C 37.7129211248 19.4790836531 10.4321527533
C 48.5254768275 19.4791484113 6.8154641646
C 48.5255248382 32.2640071574 10.4322334759
C 41.3109915837 20.4652430811 15.0161212617
C 44.9276905244 20.4652712397 2.2314247164
C 41.3108869695 31.2778515066 2.231544957
C 44.9276703619 31.2778271528 15.0163659686
C 41.3108381861 32.2639780915 3.217666209
C 44.9276561498 19.4791840002 3.2175901535
C 41.3109662985 19.4790534282 14.0300709322
C 44.9276049448 32.2638483371 14.0301345452
C 49.5115900903 20.465304683 6.8154021108
C 36.7268608779 20.4652694528 10.4320822136
C 36.7267505133 31.2777365886 6.8155478194
C 49.5115764371 31.2778096878 10.4322134376
C 37.7129830302 24.063213631 15.0161165116
C 37.7130312755 27.6799801551 2.2312946308
C 48.5255254177 24.0632718868 2.2314791777
C 48.5255186394 27.679941334 15.0162919725
C 41.4489851363 18.7413083907 10.2941685385
C 44.789558352 33.0015511695 10.2941015553
C 44.7896094121 18.7414931411 6.9535832287
C 41.4489491266 33.0017722091 6.9535166733
C 44.7895215247 24.2012679576 1.4937631888
C 44.7894989613 27.5419296506 15.7541689377
C 41.4489665019 27.5418249432 1.4937394525
C 41.4489661363 24.2011976387 15.7539018605
C 35.9891162647 27.5419927461 6.9535949606
C 50.2491604052 27.5417625755 10.2941377169
C 35.9890826351 24.2013278037 10.2941237842
C 50.2495635874 24.2012833771 6.9534696043
C 50.0728896736 27.3653002944 1.6703597122
C 36.1657957979 24.3778701935 1.67029048
C 36.1656599688 27.3652278264 15.577326669
C 50.0726292643 24.3778371159 15.5775307852
C 36.1656779754 32.8250483321 10.1175926433
C 36.1657427681 18.9179510517 7.130041843
C 50.0729565463 18.9181497556 10.1174766732
C 50.072798892 32.8250469454 7.1301586376
C 44.613014503 18.9179515277 15.5774314557
C 41.6255471333 18.9180751455 1.670327497
C 44.6129436564 32.825234521 1.6704922849
C 41.6255936987 32.8250913065 15.5775098016
C 40.9990575671 17.368108667 27.9917318773
C 45.2393990929 34.3747738705 27.9916677986
C 45.239438804 17.3682870669 23.7513837008
C 40.9990289463 34.3749719466 23.7513861397
C 45.23942424 23.7514147122 17.368261147
C 45.2393972439 27.9917828615 34.3750806416
C 40.9991191035 27.9917424536 17.3682345476
C 40.9990800133 23.7513293982 34.3748080244
C 34.6158916595 27.991784024 23.7513494193
C 51.6224004781 27.9916046479 27.9916990204
C 34.6158797896 23.7513418027 27.9916429068
C 51.6227768333 23.7514243157 23.7512795558
C 49.6229890349 25.9920962347 19.3679198705
C 36.6156474358 25.7511051508 19.3678122552
C 36.6155254083 25.9920171747 32.375161909
C 49.6228042051 25.75103339 32.375287148
C 36.615541121 32.3751365445 25.9920966452
C 36.6155785657 19.3678266605 25.7509633057
C 49.6229932537 19.3679508508 25.9919691122
C 49.6228957628 32.3752013097 25.7510629732
C 43.2398019368 19.3677940658 32.3752221414
C 42.9987814214 19.3679272042 19.3678932366
C 43.2397223421 32.3753196875 19.3680183894
C 42.9987962544 32.3752011199 32.375319177
C 40.8876740834 32.686971166 29.0891446655
C 45.3505832622 19.0559381054 29.0890395753
C 45.3505965877 32.6871464096 22.6539710437
C 40.8877053638 19.0561588243 22.6540592933
C 46.3368538758 23.6401696999 32.6871297621
C 46.336841523 28.1030389917 19.0562202295
C 39.9017302481 28.1030369806 32.6870682361
C 39.9017159636 23.6401240245 19.0559826493
C 49.9346810145 29.0890819598 23.639988637
C 36.3035881664 29.0889816092 28.102951601
C 49.9347750903 22.6538136308 28.102827421
C 36.303925973 22.6540049665 23.6399555456
C 49.9347321505 23.6398385648 29.0890510657
C 36.3036092224 28.1028171241 29.0890360361
C 49.9347548208 28.1029530153 22.6538663812
C 36.3039546973 23.6402003387 22.6539009939
C 40.8878245351 29.0892068193 32.6871310591
C 45.3507206815 29.089162917 19.0562418857
C 45.3507638007 22.6539893193 32.6871308694
C 40.8878287021 22.6539870047 19.0559874408
C 46.3367873963 32.6871276475 23.640046848
C 46.3367311722 19.0559698516 28.1029333564
C 39.901568413 32.6869922565 28.1029859032
C 39.9015965233 19.0561000303 23.640207224
C 49.5116935834 24.063234311 20.4652792357
C 36.7269447259 27.6799797136 20.4651732935
C 36.7267507065 24.0631520808 31.2777811118
C 49.5115642291 27.6798178888 31.2777759444
C 37.7129306766 32.2638270465 24.0632437213
C 37.7129211248 19.4790836531 27.6798527533
C 48.5254768275 19.4791484113 24.0631641646
C 48.5255248382 32.2640071574 27.6799334759
C 41.3109915837 20.4652430811 32.2638212617
C 44.9276905244 20.4652712397 19.4791247164
C 41.3108869695 31.2778515066 19.479244957
C 44.9276703619 31.2778271528 32.2640659686
C 41.3108381861 32.2639780915 20.4653662124
C 44.9276561498 19.4791840002 20.4652901535
C 41.3109662985 19.4790534282 31.2777709288
C 44.9276049448 32.2638483371 31.2778345452
C 49.5115900903 20.465304683 24.0631021108
C 36.7268608779 20.4652694528 27.6797822136
C 36.7267505133 31.2777365886 24.0632478194
C 49.5115764371 31.2778096878 27.6799134341
C 37.7129830302 24.063213631 32.2638165116
C 37.7130312755 27.6799801551 19.4789946308
C 48.5255254177 24.0632718868 19.4791791777
C 48.5255186394 27.679941334 32.2639919725
C 41.4489851363 18.7413083907 27.541868542
C 44.789558352 33.0015511695 27.5418015553
C 44.7896094121 18.7414931411 24.2012832253
C 41.4489491266 33.0017722091 24.2012166733
C 44.7895215247 24.2012679576 18.7414631888
C 44.7894989613 27.5419296506 33.0018689377
C 41.4489665019 27.5418249432 18.7414394525
C 41.4489661363 24.2011976387 33.0016018605
C 35.9891162647 27.5419927461 24.2012949606
C 50.2491604052 27.5417625755 27.5418377169
C 35.9890826351 24.2013278037 27.5418237842
C 50.2495635874 24.2012833771 24.2011696043
C 50.0728896736 27.3653002944 18.9180597088
C 36.1657957979 24.3778701935 18.91799048
C 36.1656599688 27.3652278264 32.825026669
C 50.0726292643 24.3778371159 32.8252307886
C 36.1656779754 32.8250483321 27.3652926433
C 36.1657427681 18.9179510517 24.377741843
C 50.0729565463 18.9181497556 27.3651766732
C 50.072798892 32.8250469454 24.3778586376
C 44.613014503 18.9179515277 32.8251314591
C 41.6255471333 18.9180751455 18.9180274935
C 44.6129436564 32.825234521 18.9181922884
C 41.6255936987 32.8250913065 32.8252098016
C 58.2467575671 0.120408667 10.7440318807
C 62.4870990929 17.1270738705 10.7439677986
C 62.487138804 0.1205870669 6.5036837008
C 58.2467289463 17.1272719466 6.5036861397
C 62.48712424 6.5037147122 0.1205611436
C 62.4870972405 10.7440828615 17.1273806381
C 58.2468191035 10.7440424536 0.1205345476
C 58.2467800133 6.5036293982 17.1271080244
C 51.8635916595 10.744084024 6.5036494193
C 68.8701004781 10.7439046479 10.7439990204
C 51.8635797862 6.5036418027 10.7439429068
C 68.8704768333 6.5037243157 6.5035795592
C 66.8706890349 8.7443962347 2.1202198705
C 53.8633474358 8.5034051508 2.1201122552
C 53.8632254083 8.7443171747 15.127461909
C 66.8705042051 8.5033333865 15.127587148
C 53.863241121 15.1274365445 8.7443966452
C 53.8632785657 2.1201266605 8.5032633057
C 66.8706932537 2.1202508508 8.7442691122
C 66.8705957628 15.1275013062 8.5033629732
C 60.4875019368 2.1200940658 15.127522138
C 60.2464814214 2.1202272042 2.1201932332
C 60.4874223421 15.1276196875 2.1203183894
C 60.2464962544 15.1275011199 15.127619177
C 58.1353740834 15.439271166 11.8414446655
C 62.5982832622 1.808238102 11.8413395787
C 62.5982965912 15.4394464096 5.4062710437
C 58.1354053638 1.8084588208 5.4063592933
C 63.5845538792 6.3924696999 15.4394297621
C 63.584541523 10.8553389917 1.8085202295
C 57.1494302481 10.8553369806 15.4393682361
C 57.1494159636 6.392424028 1.8082826493
C 67.1823810179 11.8413819598 6.392288637
C 53.5512881664 11.8412816127 10.8552516045
C 67.1824750869 5.4061136308 10.855127421
C 53.551625973 5.4063049665 6.3922555456
C 67.1824321505 6.3921385648 11.8413510691
C 53.5513092224 10.8551171241 11.8413360361
C 67.1824548208 10.8552530153 5.4061663846
C 53.5516546973 6.3925003387 5.4062009973
C 58.1355245351 11.8415068193 15.4394310591
C 62.5984206815 11.841462917 1.8085418857
C 62.5984638042 5.4062893193 15.4394308694
C 58.1355286987 5.4062870047 1.8082874408
C 63.5844873928 15.4394276475 6.392346848
C 63.5844311757 1.8082698516 10.8552333564
C 57.149268413 15.4392922565 10.8552859032
C 57.1492965233 1.8084000303 6.392507224
C 66.7593935834 6.815534311 3.2175792392
C 53.9746447259 10.4322797136 3.2174732935
C 53.9744507065 6.8154520808 14.0300811118
C 66.7592642291 10.4321178888 14.0300759444
C 54.9606306766 15.0161270465 6.8155437213
C 54.9606211248 2.2313836531 10.4321527533
C 65.7731768275 2.2314484113 6.8154641646
C 65.7732248416 15.0163071574 10.4322334759
C 58.5586915837 3.2175430811 15.0161212617
C 62.1753905244 3.2175712397 2.2314247164
C 58.558586966 14.0301515066 2.231544957
C 62.1753703619 14.0301271494 15.0163659686
C 58.5585381861 15.0162780915 3.217666209
C 62.1753561498 2.2314840002 3.2175901535
C 58.5586662985 2.2313534282 14.0300709322
C 62.1753049448 15.0161483405 14.0301345452
C 66.7592900903 3.217604683 6.8154021108
C 53.9745608779 3.2175694528 10.4320822136
C 53.9744505133 14.0300365886 6.8155478194
C 66.7592764371 14.0301096878 10.4322134376
C 54.9606830302 6.815513631 15.0161165116
C 54.9607312755 10.4322801551 2.2312946308
C 65.7732254177 6.8155718868 2.2314791777
C 65.7732186428 10.4322413375 15.0162919725
C 58.6966851363 1.4936083907 10.2941685385
C 62.037258352 15.753851173 10.2941015553
C 62.0373094121 1.4937931411 6.9535832287
C 58.6966491266 15.7540722091 6.9535166733
C 62.0372215247 6.9535679576 1.4937631888
C 62.0371989613 10.2942296506 15.7541689377
C 58.6966665019 10.2941249432 1.4937394525
C 58.6966661363 6.9534976387 15.7539018605
C 53.2368162647 10.2942927461 6.9535949606
C 67.4968604052 10.2940625755 10.2941377169
C 53.2367826351 6.9536278037 10.2941237842
C 67.4972635874 6.9535833771 6.9534696043
C 67.3205896736 10.1176002944 1.6703597122
C 53.4134957979 7.1301701935 1.67029048
C 53.4133599688 10.117527823 15.577326669
C 67.3203292643 7.1301371159 15.5775307852
C 53.4133779754 15.5773483321 10.1175926433
C 53.4134427681 1.6702510517 7.130041843
C 67.3206565463 1.6704497521 10.1174766732
C 67.320498892 15.5773469454 7.1301586376
C 61.860714503 1.6702515277 15.5774314557
C 58.8732471333 1.6703751455 1.670327497
C 61.8606436564 15.5775345176 1.6704922849
C 58.8732936952 15.5773913065 15.5775098016
C 58.2467575671 0.120408667 27.9917318773
C 62.4870990929 17.1270738705 27.9916677986
C 62.487138804 0.1205870669 23.7513837008
C 58.2467289463 17.1272719466 23.7513861397
C 62.48712424 6.5037147122 17.368261147
C 62.4870972405 10.7440828615 34.3750806416
C 58.2468191035 10.7440424536 17.3682345476
C 58.2467800133 6.5036293982 34.3748080244
C 51.8635916595 10.744084024 23.7513494193
C 68.8701004781 10.7439046479 27.9916990204
C 51.8635797862 6.5036418027 27.9916429068
C 68.8704768333 6.5037243157 23.7512795558
C 66.8706890349 8.7443962347 19.3679198705
C 53.8633474358 8.5034051508 19.3678122552
C 53.8632254083 8.7443171747 32.375161909
C 66.8705042051 8.5033333865 32.375287148
C 53.863241121 15.1274365445 25.9920966452
C 53.8632785657 2.1201266605 25.7509633057
C 66.8706932537 2.1202508508 25.9919691122
C 66.8705957628 15.1275013062 25.7510629732
C 60.4875019368 2.1200940658 32.3752221414
C 60.2464814214 2.1202272042 19.3678932366
C 60.4874223421 15.1276196875 19.3680183894
C 60.2464962544 15.1275011199 32.375319177
C 58.1353740834 15.439271166 29.0891446655
C 62.5982832622 1.808238102 29.0890395753
C 62.5982965912 15.4394464096 22.6539710437
C 58.1354053638 1.8084588208 22.6540592933
C 63.5845538792 6.3924696999 32.6871297621
C 63.584541523 10.8553389917 19.0562202295
C 57.1494302481 10.8553369806 32.6870682361
C 57.1494159636 6.392424028 19.0559826493
C 67.1823810179 11.8413819598 23.639988637
C 53.5512881664 11.8412816127 28.102951601
C 67.1824750869 5.4061136308 28.102827421
C 53.551625973 5.4063049665 23.6399555456
C 67.1824321505 6.3921385648 29.0890510657
C 53.5513092224 10.8551171241 29.0890360361
C 67.1824548208 10.8552530153 22.6538663812
C 53.5516546973 6.3925003387 22.6539009939
C 58.1355245351 11.8415068193 32.6871310591
C 62.5984206815 11.841462917 19.0562418857
C 62.5984638042 5.4062893193 32.6871308694
C 58.1355286987 5.4062870047 19.0559874408
C 63.5844873928 15.4394276475 23.640046848
C 63.5844311757 1.8082698516 28.1029333564
C 57.149268413 15.4392922565 28.1029859032
C 57.1492965233 1.8084000303 23.640207224
C 66.7593935834 6.815534311 20.4652792357
C 53.9746447259 10.4322797136 20.4651732935
C 53.9744507065 6.8154520808 31.2777811118
C 66.7592642291 10.4321178888 31.2777759444
C 54.9606306766 15.0161270465 24.0632437213
C 54.9606211248 2.2313836531 27.6798527533
C 65.7731768275 2.2314484113 24.0631641646
C 65.7732248416 15.0163071574 27.6799334759
C 58.5586915837 3.2175430811 32.2638212617
C 62.1753905244 3.2175712397 19.4791247164
C 58.558586966 14.0301515066 19.479244957
C 62.1753703619 14.0301271494 32.2640659686
C 58.5585381861 15.0162780915 20.4653662124
C 62.1753561498 2.2314840002 20.4652901535
C 58.5586662985 2.2313534282 31.2777709288
C 62.1753049448 15.0161483405 31.2778345452
C 66.7592900903 3.217604683 24.0631021108
C 53.9745608779 3.2175694528 27.6797822136
C 53.9744505133 14.0300365886 24.0632478194
C 66.7592764371 14.0301096878 27.6799134341
C 54.9606830302 6.815513631 32.2638165116
C 54.9607312755 10.4322801551 19.4789946308
C 65.7732254177 6.8155718868 19.4791791777
C 65.7732186428 10.4322413375 32.2639919725
C 58.6966851363 1.4936083907 27.541868542
C 62.037258352 15.753851173 27.5418015553
C 62.0373094121 1.4937931411 24.2012832253
C 58.6966491266 15.7540722091 24.2012166733
C 62.0372215247 6.9535679576 18.7414631888
C 62.0371989613 10.2942296506 33.0018689377
C 58.6966665019 10.2941249432 18.7414394525
C 58.6966661363 6.9534976387 33.0016018605
C 53.2368162647 10.2942927461 24.2012949606
C 67.4968604052 10.2940625755 27.5418377169
C 53.2367826351 6.9536278037 27.5418237842
C 67.4972635874 6.9535833771 24.2011696043
C 67.3205896736 10.1176002944 18.9180597088
C 53.4134957979 7.1301701935 18.91799048
C 53.4133599688 10.117527823 32.825026669
C 67.3203292643 7.1301371159 32.8252307886
C 53.4133779754 15.5773483321 27.3652926433
C 53.4134427681 1.6702510517 24.377741843
C 67.3206565463 1.6704497521 27.3651766732
C 67.320498892 15.5773469454 24.3778586376
C 61.860714503 1.6702515277 32.8251314591
C 58.8732471333 1.6703751455 18.9180274935
C 61.8606436564 15.5775345176 18.9181922884
C 58.8732936952 15.5773913065 32.8252098016
C 58.2467575671 17.368108667 10.7440318807
C 62.4870990929 34.3747738705 10.7439677986
C 62.487138804 17.3682870669 6.5036837008
C 58.2467289463 34.3749719466 6.5036861397
C 62.48712424 23.7514147122 0.1205611436
C 62.4870972405 27.9917828615 17.1273806381
C 58.2468191035 27.9917424536 0.1205345476
C 58.2467800133 23.7513293982 17.1271080244
C 51.8635916595 27.991784024 6.5036494193
C 68.8701004781 27.9916046479 10.7439990204
C 51.8635797862 23.7513418027 10.7439429068
C 68.8704768333 23.7514243157 6.5035795592
C 66.8706890349 25.9920962347 2.1202198705
C 53.8633474358 25.7511051508 2.1201122552
C 53.8632254083 25.9920171747 15.127461909
C 66.8705042051 25.75103339 15.127587148
C 53.863241121 32.3751365445 8.7443966452
C 53.8632785657 19.3678266605 8.5032633057
C 66.8706932537 19.3679508508 8.7442691122
C 66.8705957628 32.3752013097 8.5033629732
C 60.4875019368 19.3677940658 15.127522138
C 60.2464814214 19.3679272042 2.1201932332
C 60.4874223421 32.3753196875 2.1203183894
C 60.2464962544 32.3752011199 15.127619177
C 58.1353740834 32.686971166 11.8414446655
C 62.5982832622 19.0559381054 11.8413395787
C 62.5982965912 32.6871464096 5.4062710437
C 58.1354053638 19.0561588243 5.4063592933
C 63.5845538792 23.6401696999 15.4394297621
C 63.584541523 28.1030389917 1.8085202295
C 57.1494302481 28.1030369806 15.4393682361
C 57.1494159636 23.6401240245 1.8082826493
C 67.1823810179 29.0890819598 6.392288637
C 53.5512881664 29.0889816092 10.8552516045
C 67.1824750869 22.6538136308 10.855127421
C 53.551625973 22.6540049665 6.3922555456
C 67.1824321505 23.6398385648 11.8413510691
C 53.5513092224 28.1028171241 11.8413360361
C 67.1824548208 28.1029530153 5.4061663846
C 53.5516546973 23.6402003387 5.4062009973
C 58.1355245351 29.0892068193 15.4394310591
C 62.5984206815 29.089162917 1.8085418857
C 62.5984638042 22.6539893193 15.4394308694
C 58.1355286987 22.6539870047 1.8082874408
C 63.5844873928 32.6871276475 6.392346848
C 63.5844311757 19.0559698516 10.8552333564
C 57.149268413 32.6869922565 10.8552859032
C 57.1492965233 19.0561000303 6.392507224
C 66.7593935834 24.063234311 3.2175792392
C 53.9746447259 27.6799797136 3.2174732935
C 53.9744507065 24.0631520808 14.0300811118
C 66.7592642291 27.6798178888 14.0300759444
C 54.9606306766 32.2638270465 6.8155437213
C 54.9606211248 19.4790836531 10.4321527533
C 65.7731768275 19.4791484113 6.8154641646
C 65.7732248416 32.2640071574 10.4322334759
C 58.5586915837 20.4652430811 15.0161212617
C 62.1753905244 20.4652712397 2.2314247164
C 58.558586966 31.2778515066 2.231544957
C 62.1753703619 31.2778271528 15.0163659686
C 58.5585381861 32.2639780915 3.217666209
C 62.1753561498 19.4791840002 3.2175901535
C 58.5586662985 19.4790534282 14.0300709322
C 62.1753049448 32.2638483371 14.0301345452
C 66.7592900903 20.465304683 6.8154021108
C 53.9745608779 20.4652694528 10.4320822136
C 53.9744505133 31.2777365886 6.8155478194
C 66.7592764371 31.2778096878 10.4322134376
C 54.9606830302 24.063213631 15.0161165116
C 54.9607312755 27.6799801551 2.2312946308
C 65.7732254177 24.0632718868 2.2314791777
C 65.7732186428 27.679941334 15.0162919725
C 58.6966851363 18.7413083907 10.2941685385
C 62.037258352 33.0015511695 10.2941015553
C 62.0373094121 18.7414931411 6.9535832287
C 58.6966491266 33.0017722091 6.9535166733
C 62.0372215247 24.2012679576 1.4937631888
C 62.0371989613 27.5419296506 15.7541689377
C 58.6966665019 27.5418249432 1.4937394525
C 58.6966661363 24.2011976387 15.7539018605
C 53.2368162647 27.5419927461 6.9535949606
C 67.4968604052 27.5417625755 10.2941377169
C 53.2367826351 24.2013278037 10.2941237842
C 67.4972635874 24.2012833771 6.9534696043
C 67.3205896736 27.3653002944 1.6703597122
C 53.4134957979 24.3778701935 1.67029048
C 53.4133599688 27.3652278264 15.577326669
C 67.3203292643 24.3778371159 15.5775307852
C 53.4133779754 32.8250483321 10.1175926433
C 53.4134427681 18.9179510517 7.130041843
C 67.3206565463 18.9181497556 10.1174766732
C 67.320498892 32.8250469454 7.1301586376
C 61.860714503 18.9179515277 15.5774314557
C 58.8732471333 18.9180751455 1.670327497
C 61.8606436564 32.825234521 1.6704922849
C 58.8732936952 32.8250913065 15.5775098016
C 58.2467575671 17.368108667 27.9917318773
C 62.4870990929 34.3747738705 27.9916677986
C 62.487138804 17.3682870669 23.7513837008
C 58.2467289463 34.3749719466 23.7513861397
C 62.48712424 23.7514147122 17.368261147
C 62.4870972405 27.9917828615 34.3750806416
C 58.2468191035 27.9917424536 17.3682345476
C 58.2467800133 23.7513293982 34.3748080244
C 51.8635916595 27.991784024 23.7513494193
C 68.8701004781 27.9916046479 27.9916990204
C 51.8635797862 23.7513418027 27.9916429068
C 68.8704768333 23.7514243157 23.7512795558
C 66.8706890349 25.9920962347 19.3679198705
C 53.8633474358 25.7511051508 19.3678122552
C 53.8632254083 25.9920171747 32.375161909
C 66.8705042051 25.75103339 32.375287148
C 53.863241121 32.3751365445 25.9920966452
C 53.8632785657 19.3678266605 25.7509633057
C 66.8706932537 19.3679508508 25.9919691122
C 66.8705957628 32.3752013097 25.7510629732
C 60.4875019368 19.3677940658 32.3752221414
C 60.2464814214 19.3679272042 19.3678932366
C 60.4874223421 32.3753196875 19.3680183894
C 60.2464962544 32.3752011199 32.375319177
C 58.1353740834 32.686971166 29.0891446655
C 62.5982832622 19.0559381054 29.0890395753
C 62.5982965912 32.6871464096 22.6539710437
C 58.1354053638 19.0561588243 22.6540592933
C 63.5845538792 23.6401696999 32.6871297621
C 63.584541523 28.1030389917 19.0562202295
C 57.1494302481 28.1030369806 32.6870682361
C 57.1494159636 23.6401240245 19.0559826493
C 67.1823810179 29.0890819598 23.639988637
C 53.5512881664 29.0889816092 28.102951601
C 67.1824750869 22.6538136308 28.102827421
C 53.551625973 22.6540049665 23.6399555456
C 67.1824321505 23.6398385648 29.0890510657
C 53.5513092224 28.1028171241 29.0890360361
C 67.1824548208 28.1029530153 22.6538663812
C 53.5516546973 23.6402003387 22.6539009939
C 58.1355245351 29.0892068193 32.6871310591
C 62.5984206815 29.089162917 19.0562418857
C 62.5984638042 22.6539893193 32.6871308694
C 58.1355286987 22.6539870047 19.0559874408
C 63.5844873928 32.6871276475 23.640046848
C 63.5844311757 19.0559698516 28.1029333564
C 57.149268413 32.6869922565 28.1029859032
C 57.1492965233 19.0561000303 23.640207224
C 66.7593935834 24.063234311 20.4652792357
C 53.9746447259 27.6799797136 20.4651732935
C 53.9744507065 24.0631520808 31.2777811118
C 66.7592642291 27.6798178888 31.2777759444
C 54.9606306766 32.2638270465 24.0632437213
C 54.9606211248 19.4790836531 27.6798527533
C 65.7731768275 19.4791484113 24.0631641646
C 65.7732248416 32.2640071574 27.6799334759
C 58.5586915837 20.4652430811 32.2638212617
C 62.1753905244 20.4652712397 19.4791247164
C 58.558586966 31.2778515066 19.479244957
C 62.1753703619 31.2778271528 32.2640659686
C 58.5585381861 32.2639780915 20.4653662124
C 62.1753561498 19.4791840002 20.4652901535
C 58.5586662985 19.4790534282 31.2777709288
C 62.1753049448 32.2638483371 31.2778345452
C 66.7592900903 20.465304683 24.0631021108
C 53.9745608779 20.4652694528 27.6797822136
C 53.9744505133 31.2777365886 24.0632478194
C 66.7592764371 31.2778096878 27.6799134341
C 54.9606830302 24.063213631 32.2638165116
C 54.9607312755 27.6799801551 19.4789946308
C 65.7732254177 24.0632718868 19.4791791777
C 65.7732186428 27.679941334 32.2639919725
C 58.6966851363 18.7413083907 27.541868542
C 62.037258352 33.0015511695 27.5418015553
C 62.0373094121 18.7414931411 24.2012832253
C 58.6966491266 33.0017722091 24.2012166733
C 62.0372215247 24.2012679576 18.7414631888
C 62.0371989613 27.5419296506 33.0018689377
C 58.6966665019 27.5418249432 18.7414394525
C 58.6966661363 24.2011976387 33.0016018605
C 53.2368162647 27.5419927461 24.2012949606
C 67.4968604052 27.5417625755 27.5418377169
C 53.2367826351 24.2013278037 27.5418237842
C 67.4972635874 24.2012833771 24.2011696043
C 67.3205896736 27.3653002944 18.9180597088
C 53.4134957979 24.3778701935 18.91799048
C 53.4133599688 27.3652278264 32.825026669
C 67.3203292643 24.3778371159 32.8252307886
C 53.4133779754 32.8250483321 27.3652926433
C 53.4134427681 18.9179510517 24.377741843
C 67.3206565463 18.9181497556 27.3651766732
C 67.320498892 32.8250469454 24.3778586376
C 61.860714503 18.9179515277 32.8251314591
C 58.8732471333 18.9180751455 18.9180274935
C 61.8606436564 32.825234521 18.9181922884
C 58.8732936952 32.8250913065 32.8252098016
Zn 43.1192463504 -1.5904304495e-04 12.9357967838
Zn 43.1191767214 1.5681609715e-04 4.31199931
Zn 47.4311525538 8.6239741076 1.2673959275e-04
Zn 38.8073773778 8.6238438564 -1.017853594e-04
Zn 34.4952634531 12.9357270583 8.6238764476
Zn 34.4955125193 4.3119706616 8.6236518308
Zn 34.4952252249 8.6237034739 12.9357706501
Zn 34.4955561683 8.6239182491 4.3119119573
Zn 43.1193027538 12.935860828 1.859293081e-04
Zn 43.119289956 4.3119035025 -2.7459185405e-05
Zn 47.4312452395 2.609909377e-05 8.6238515661
Zn 38.807281215 -6.9592510106e-05 8.6238636981
Zn 43.1192463504 -1.5904304495e-04 30.1834967838
Zn 43.1191767214 1.5681609715e-04 21.55969931
Zn 47.4311525538 8.6239741076 17.2478267395
Zn 38.8073773778 8.6238438564 17.2475982144
Zn 34.4952634531 12.9357270583 25.8715764442
Zn 34.4955125193 4.3119706616 25.8713518308
Zn 34.4952252249 8.6237034739 30.1834706501
Zn 34.4955561683 8.6239182491 21.5596119573
Zn 43.1193027538 12.935860828 17.2478859302
Zn 43.119289956 4.3119035025 17.2476725417
Zn 47.4312452395 2.609909377e-05 25.8715515661
Zn 38.807281215 -6.9592510106e-05 25.8715636981
Zn 43.1192463504 17.2475409555 12.9357967838
Zn 43.1191767214 17.2478568161 4.31199931
Zn 47.4311525538 25.8716741076 1.2673959275e-04
Zn 38.8073773778 25.8715438564 -1.017853594e-04
Zn 34.4952634531 30.1834270583 8.6238764476
Zn 34.4955125193 21.5596706581 8.6236518308
Zn 34.4952252249 25.8714034739 12.9357706501
Zn 34.4955561683 25.8716182491 4.3119119573
Zn 43.1193027538 30.183560828 1.859293081e-04
Zn 43.119289956 21.5596035025 -2.7459185405e-05
Zn 47.4312452395 17.2477260992 8.6238515661
Zn 38.807281215 17.247630409 8.6238636981
Zn 43.1192463504 17.2475409555 30.1834967838
Zn 43.1191767214 17.2478568161 21.55969931
Zn 47.4311525538 25.8716741076 17.2478267395
Zn 38.8073773778 25.8715438564 17.2475982144
Zn 34.4952634531 30.1834270583 25.8715764442
Zn 34.4955125193 21.5596706581 25.8713518308
Zn 34.4952252249 25.8714034739 30.1834706501
Zn 34.4955561683 25.8716182491 21.5596119573
Zn 43.1193027538 30.183560828 17.2478859302
Zn 43.119289956 21.5596035025 17.2476725417
Zn 47.4312452395 17.2477260992 25.8715515661
Zn 38.807281215 17.247630409 25.8715636981
Zn 60.3669463504 -1.5904304495e-04 12.9357967838
Zn 60.3668767249 1.5681609715e-04 4.31199931
Zn 64.6788525538 8.6239741076 1.2673959275e-04
Zn 56.0550773744 8.6238438564 -1.017853594e-04
Zn 51.7429634534 12.9357270583 8.6238764476
Zn 51.7432125205 4.3119706616 8.6236518308
Zn 51.7429252256 8.6237034739 12.9357706501
Zn 51.7432561676 8.6239182491 4.3119119573
Zn 60.3670027538 12.935860828 1.859293081e-04
Zn 60.366989956 4.3119035025 -2.7459185405e-05
Zn 64.6789452395 2.609909377e-05 8.6238515661
Zn 56.054981215 -6.9592510106e-05 8.6238636981
Zn 60.3669463504 -1.5904304495e-04 30.1834967838
Zn 60.3668767249 1.5681609715e-04 21.55969931
Zn 64.6788525538 8.6239741076 17.2478267395
Zn 56.0550773744 8.6238438564 17.2475982144
Zn 51.7429634534 12.9357270583 25.8715764442
Zn 51.7432125205 4.3119706616 25.8713518308
Zn 51.7429252256 8.6237034739 30.1834706501
Zn 51.7432561676 8.6239182491 21.5596119573
Zn 60.3670027538 12.935860828 17.2478859302
Zn 60.366989956 4.3119035025 17.2476725417
Zn 64.6789452395 2.609909377e-05 25.8715515661
Zn 56.054981215 -6.9592510106e-05 25.8715636981
Zn 60.3669463504 17.2475409555 12.9357967838
Zn 60.3668767249 17.2478568161 4.31199931
Zn 64.6788525538 25.8716741076 1.2673959275e-04
Zn 56.0550773744 25.8715438564 -1.017853594e-04
Zn 51.7429634534 30.1834270583 8.6238764476
Zn 51.7432125205 21.5596706581 8.6236518308
Zn 51.7429252256 25.8714034739 12.9357706501
Zn 51.7432561676 25.8716182491 4.3119119573
Zn 60.3670027538 30.183560828 1.859293081e-04
Zn 60.366989956 21.5596035025 -2.7459185405e-05
Zn 64.6789452395 17.2477260992 8.6238515661
Zn 56.054981215 17.247630409 8.6238636981
Zn 60.3669463504 17.2475409555 30.1834967838
Zn 60.3668767249 17.2478568161 21.55969931
Zn 64.6788525538 25.8716741076 17.2478267395
Zn 56.0550773744 25.8715438564 17.2475982144
Zn 51.7429634534 30.1834270583 25.8715764442
Zn 51.7432125205 21.5596706581 25.8713518308
Zn 51.7429252256 25.8714034739 30.1834706501
Zn 51.7432561676 25.8716182491 21.5596119573
Zn 60.3670027538 30.183560828 17.2478859302
Zn 60.366989956 21.5596035025 17.2476725417
Zn 64.6789452395 17.2477260992 25.8715515661
Zn 56.054981215 17.247630409 25.8715636981
N 41.5745951991 16.659920844 11.7691278708
N 44.6637635043 0.5875350804 11.7690218009
N 44.6637595787 16.660126026 5.4786451249
N 41.5745956959 0.5878023852 5.4786359147
N 46.264482599 7.0793518255 16.6600890539
N 46.2644804189 10.1684873876 0.5878432933
N 39.9740764295 10.1684280107 16.6600119463
N 39.9740335655 7.0792580877 0.5875927084
N 51.1553447493 11.7691175774 7.07920423
N 35.0828738373 11.7689990546 10.1684327331
N 51.1554398945 5.4785983354 10.1682439191
N 35.0832339382 5.4786116954 7.0791115236
N 51.1553803761 7.0790804536 11.7690823472
N 35.0829167426 10.1682565478 11.7690161126
N 51.1554632755 10.1684437199 5.4785628603
N 35.083289086 7.0793792252 5.4785705942
N 41.5746945873 11.7691619143 16.660108223
N 44.6638267723 11.7691439491 0.5878774507
N 44.6638745484 5.4786109538 16.6600898335
N 41.574675532 5.4785734642 0.5876013599
N 46.2645291437 16.660091441 7.0792248272
N 46.2644632678 0.5875887483 10.1683887169
N 39.973969511 16.6599553394 10.1684135812
N 39.9739547918 0.5877023727 7.0793197379
N 50.1985962786 8.0361939166 3.1452645866
N 36.0400999691 9.2115833669 3.1452022017
N 36.0398399049 8.0360944457 14.1024666076
N 50.1983597747 9.2114121282 14.1024235125
N 37.6406379044 15.7029923315 8.0362147657
N 37.640585292 1.5444888055 9.2115021336
N 48.5978884018 1.5446122025 8.0361520082
N 48.5978867011 15.7031686582 9.2115626938
N 42.5316555289 3.1452315642 15.7030248675
N 43.7070022876 3.1452461316 1.5445563648
N 42.5315834335 14.1025211138 1.5447135948
N 43.7070217395 14.1025087851 15.7032853492
N 42.5314992785 15.7031953749 3.1453604114
N 43.7069427589 1.5446585195 3.1452885264
N 42.5316114679 1.544437604 14.1024866287
N 43.7069219443 15.7029987097 14.1024577699
N 50.1985325691 3.1453159054 8.0360393048
N 36.0400264456 3.145248598 9.2113863912
N 36.0398828551 14.1023973684 8.0362186912
N 50.1984259852 14.1023987793 9.2115318031
N 37.6406898476 8.0361945617 15.7029678949
N 37.6406788677 9.2115972133 1.5444505984
N 48.5978803574 8.0362485608 1.5446317269
N 48.5978326331 9.2116110736 15.7032263103
N 41.5745951991 16.659920844 29.0168278708
N 44.6637635043 0.5875350804 29.0167217974
N 44.6637595787 16.660126026 22.7263451249
N 41.5745956959 0.5878023852 22.7263359147
N 46.264482599 7.0793518255 33.9077890504
N 46.2644804189 10.1684873876 17.8355432933
N 39.9740764295 10.1684280107 33.9077119463
N 39.9740335655 7.0792580877 17.835292705
N 51.1553447493 11.7691175774 24.32690423
N 35.0828738373 11.7689990546 27.4161327331
N 51.1554398945 5.4785983354 27.4159439191
N 35.0832339382 5.4786116954 24.3268115236
N 51.1553803761 7.0790804536 29.0167823472
N 35.0829167426 10.1682565478 29.0167161126
N 51.1554632755 10.1684437199 22.7262628603
N 35.083289086 7.0793792252 22.7262705942
N 41.5746945873 11.7691619143 33.907808223
N 44.6638267723 11.7691439491 17.8355774507
N 44.6638745484 5.4786109538 33.9077898335
N 41.574675532 5.4785734642 17.8353013599
N 46.2645291437 16.660091441 24.3269248272
N 46.2644632678 0.5875887483 27.4160887204
N 39.973969511 16.6599553394 27.4161135812
N 39.9739547918 0.5877023727 24.3270197379
N 50.1985962786 8.0361939166 20.3929645866
N 36.0400999691 9.2115833669 20.3929022017
N 36.0398399049 8.0360944457 31.3501666076
N 50.1983597747 9.2114121282 31.3501235125
N 37.6406379044 15.7029923315 25.2839147657
N 37.640585292 1.5444888055 26.4592021371
N 48.5978884018 1.5446122025 25.2838520047
N 48.5978867011 15.7031686582 26.4592626903
N 42.5316555289 3.1452315642 32.9507248675
N 43.7070022876 3.1452461316 18.7922563648
N 42.5315834335 14.1025211138 18.7924135914
N 43.7070217395 14.1025087851 32.9509853458
N 42.5314992785 15.7031953749 20.3930604114
N 43.7069427589 1.5446585195 20.3929885264
N 42.5316114679 1.544437604 31.3501866287
N 43.7069219443 15.7029987097 31.3501577699
N 50.1985325691 3.1453159054 25.2837393048
N 36.0400264456 3.145248598 26.4590863878
N 36.0398828551 14.1023973684 25.2839186912
N 50.1984259852 14.1023987793 26.4592318031
N 37.6406898476 8.0361945617 32.9506678915
N 37.6406788677 9.2115972133 18.7921505984
N 48.5978803574 8.0362485608 18.7923317269
N 48.5978326331 9.2116110736 32.9509263103
N 41.5745951991 33.907620844 11.7691278708
N 44.6637635043 17.8352350804 11.7690218009
N 44.6637595787 33.907826026 5.4786451249
N 41.5745956959 17.8355023852 5.4786359147
N 46.264482599 24.3270518255 16.6600890539
N 46.2644804189 27.4161873841 0.5878432933
N 39.9740764295 27.4161280107 16.6600119463
N 39.9740335655 24.3269580843 0.5875927084
N 51.1553447493 29.0168175774 7.07920423
N 35.0828738373 29.0166990546 10.1684327331
N 51.1554398945 22.7262983354 10.1682439191
N 35.0832339382 22.7263116954 7.0791115236
N 51.1553803761 24.3267804536 11.7690823472
N 35.0829167426 27.4159565478 11.7690161126
N 51.1554632755 27.4161437199 5.4785628603
N 35.083289086 24.3270792252 5.4785705942
N 41.5746945873 29.0168619143 16.660108223
N 44.6638267723 29.0168439491 0.5878774507
N 44.6638745484 22.7263109572 16.6600898335
N 41.574675532 22.7262734642 0.5876013599
N 46.2645291437 33.907791441 7.0792248272
N 46.2644632678 17.8352887483 10.1683887169
N 39.973969511 33.9076553394 10.1684135812
N 39.9739547918 17.8354023762 7.0793197379
N 50.1985962786 25.2838939201 3.1452645866
N 36.0400999691 26.4592833634 3.1452022017
N 36.0398399049 25.2837944457 14.1024666076
N 50.1983597747 26.4591121248 14.1024235125
N 37.6406379044 32.9506923315 8.0362147657
N 37.640585292 18.7921888055 9.2115021336
N 48.5978884018 18.7923122059 8.0361520082
N 48.5978867011 32.9508686582 9.2115626938
N 42.5316555289 20.3929315642 15.7030248675
N 43.7070022876 20.3929461316 1.5445563648
N 42.5315834335 31.3502211138 1.5447135948
N 43.7070217395 31.3502087886 15.7032853492
N 42.5314992785 32.9508953749 3.1453604114
N 43.7069427589 18.792358516 3.1452885264
N 42.5316114679 18.792137604 14.1024866287
N 43.7069219443 32.9506987097 14.1024577699
N 50.1985325691 20.3930159054 8.0360393048
N 36.0400264456 20.392948598 9.2113863912
N 36.0398828551 31.3500973684 8.0362186912
N 50.1984259852 31.3500987793 9.2115318031
N 37.6406898476 25.2838945617 15.7029678949
N 37.6406788677 26.4592972133 1.5444505984
N 48.5978803574 25.2839485608 1.5446317269
N 48.5978326331 26.4593110701 15.7032263103
N 41.5745951991 33.907620844 29.0168278708
N 44.6637635043 17.8352350804 29.0167217974
N 44.6637595787 33.907826026 22.7263451249
N 41.5745956959 17.8355023852 22.7263359147
N 46.264482599 24.3270518255 33.9077890504
N 46.2644804189 27.4161873841 17.8355432933
N 39.9740764295 27.4161280107 33.9077119463
N 39.9740335655 24.3269580843 17.835292705
N 51.1553447493 29.0168175774 24.32690423
N 35.0828738373 29.0166990546 27.4161327331
N 51.1554398945 22.7262983354 27.4159439191
N 35.0832339382 22.7263116954 24.3268115236
N 51.1553803761 24.3267804536 29.0167823472
N 35.0829167426 27.4159565478 29.0167161126
N 51.1554632755 27.4161437199 22.7262628603
N 35.083289086 24.3270792252 22.7262705942
N 41.5746945873 29.0168619143 33.907808223
N 44.6638267723 29.0168439491 17.8355774507
N 44.6638745484 22.7263109572 33.9077898335
N 41.574675532 22.7262734642 17.8353013599
N 46.2645291437 33.907791441 24.3269248272
N 46.2644632678 17.8352887483 27.4160887204
N 39.973969511 33.9076553394 27.4161135812
N 39.9739547918 17.8354023762 24.3270197379
N 50.1985962786 25.2838939201 20.3929645866
N 36.0400999691 26.4592833634 20.3929022017
N 36.0398399049 25.2837944457 31.3501666076
N 50.1983597747 26.4591121248 31.3501235125
N 37.6406379044 32.9506923315 25.2839147657
N 37.640585292 18.7921888055 26.4592021371
N 48.5978884018 18.7923122059 25.2838520047
N 48.5978867011 32.9508686582 26.4592626903
N 42.5316555289 20.3929315642 32.9507248675
N 43.7070022876 20.3929461316 18.7922563648
N 42.5315834335 31.3502211138 18.7924135914
N 43.7070217395 31.3502087886 32.9509853458
N 42.5314992785 32.9508953749 20.3930604114
N 43.7069427589 18.792358516 20.3929885264
N 42.5316114679 18.792137604 31.3501866287
N 43.7069219443 32.9506987097 31.3501577699
N 50.1985325691 20.3930159054 25.2837393048
N 36.0400264456 20.392948598 26.4590863878
N 36.0398828551 31.3500973684 25.2839186912
N 50.1984259852 31.3500987793 26.4592318031
N 37.6406898476 25.2838945617 32.9506678915
N 37.6406788677 26.4592972133 18.7921505984
N 48.5978803574 25.2839485608 18.7923317269
N 48.5978326331 26.4593110701 32.9509263103
N 58.8222951991 16.659920844 11.7691278708
N 61.9114635077 0.5875350804 11.7690218009
N 61.9114595787 16.660126026 5.4786451249
N 58.8222956959 0.5878023852 5.4786359147
N 63.512182599 7.0793518255 16.6600890539
N 63.5121804189 10.1684873876 0.5878432933
N 57.2217764295 10.1684280107 16.6600119463
N 57.2217335655 7.0792580877 0.5875927084
N 68.4030447493 11.7691175774 7.07920423
N 52.3305738373 11.7689990546 10.1684327331
N 68.4031398945 5.4785983354 10.1682439191
N 52.3309339382 5.4786116954 7.0791115236
N 68.4030803761 7.0790804536 11.7690823472
N 52.3306167426 10.1682565478 11.7690161126
N 68.403163272 10.1684437199 5.4785628603
N 52.330989086 7.0793792252 5.4785705942
N 58.8223945873 11.7691619143 16.660108223
N 61.9115267723 11.7691439491 0.5878774507
N 61.9115745484 5.4786109538 16.6600898335
N 58.8223755286 5.4785734642 0.5876013599
N 63.5122291437 16.660091441 7.0792248272
N 63.5121632678 0.5875887483 10.1683887169
N 57.221669511 16.6599553394 10.1684135812
N 57.2216547884 0.5877023727 7.0793197379
N 67.4462962786 8.0361939166 3.1452645866
N 53.2877999691 9.2115833669 3.1452022017
N 53.2875399049 8.0360944457 14.1024666076
N 67.4460597747 9.2114121282 14.1024235125
N 54.8883379044 15.7029923315 8.0362147657
N 54.888285292 1.5444888055 9.2115021336
N 65.8455884052 1.5446122025 8.0361520082
N 65.8455867046 15.7031686582 9.2115626938
N 59.7793555289 3.1452315642 15.7030248675
N 60.9547022876 3.1452461316 1.5445563648
N 59.7792834335 14.1025211138 1.5447135948
N 60.9547217395 14.1025087851 15.7032853492
N 59.7791992785 15.7031953749 3.1453604114
N 60.9546427589 1.5446585195 3.1452885264
N 59.7793114645 1.544437604 14.1024866287
N 60.9546219443 15.7029987097 14.1024577699
N 67.4462325691 3.1453159054 8.0360393048
N 53.2877264491 3.145248598 9.2113863912
N 53.2875828551 14.1023973684 8.0362186912
N 67.4461259852 14.1023987793 9.2115318031
N 54.8883898476 8.0361945617 15.7029678949
N 54.8883788712 9.2115972133 1.5444505984
N 65.8455803574 8.0362485608 1.5446317269
N 65.8455326331 9.2116110736 15.7032263103
N 58.8222951991 16.659920844 29.0168278708
N 61.9114635077 0.5875350804 29.0167217974
N 61.9114595787 16.660126026 22.7263451249
N 58.8222956959 0.5878023852 22.7263359147
N 63.512182599 7.0793518255 33.9077890504
N 63.5121804189 10.1684873876 17.8355432933
N 57.2217764295 10.1684280107 33.9077119463
N 57.2217335655 7.0792580877 17.835292705
N 68.4030447493 11.7691175774 24.32690423
N 52.3305738373 11.7689990546 27.4161327331
N 68.4031398945 5.4785983354 27.4159439191
N 52.3309339382 5.4786116954 24.3268115236
N 68.4030803761 7.0790804536 29.0167823472
N 52.3306167426 10.1682565478 29.0167161126
N 68.403163272 10.1684437199 22.7262628603
N 52.330989086 7.0793792252 22.7262705942
N 58.8223945873 11.7691619143 33.907808223
N 61.9115267723 11.7691439491 17.8355774507
N 61.9115745484 5.4786109538 33.9077898335
N 58.8223755286 5.4785734642 17.8353013599
N 63.5122291437 16.660091441 24.3269248272
N 63.5121632678 0.5875887483 27.4160887204
N 57.221669511 16.6599553394 27.4161135812
N 57.2216547884 0.5877023727 24.3270197379
N 67.4462962786 8.0361939166 20.3929645866
N 53.2877999691 9.2115833669 20.3929022017
N 53.2875399049 8.0360944457 31.3501666076
N 67.4460597747 9.2114121282 31.3501235125
N 54.8883379044 15.7029923315 25.2839147657
N 54.888285292 1.5444888055 26.4592021371
N 65.8455884052 1.5446122025 25.2838520047
N 65.8455867046 15.7031686582 26.4592626903
N 59.7793555289 3.1452315642 32.9507248675
N 60.9547022876 3.1452461316 18.7922563648
N 59.7792834335 14.1025211138 18.7924135914
N 60.9547217395 14.1025087851 32.9509853458
N 59.7791992785 15.7031953749 20.3930604114
N 60.9546427589 1.5446585195 20.3929885264
N 59.7793114645 1.544437604 31.3501866287
N 60.9546219443 15.7029987097 31.3501577699
N 67.4462325691 3.1453159054 25.2837393048
N 53.2877264491 3.145248598 26.4590863878
N 53.2875828551 14.1023973684 25.2839186912
N 67.4461259852 14.1023987793 26.4592318031
N 54.8883898476 8.0361945617 32.9506678915
N 54.8883788712 9.2115972133 18.7921505984
N 65.8455803574 8.0362485608 18.7923317269
N 65.8455326331 9.2116110736 32.9509263103
N 58.8222951991 33.907620844 11.7691278708
N 61.9114635077 17.8352350804 11.7690218009
N 61.9114595787 33.907826026 5.4786451249
N 58.8222956959 17.8355023852 5.4786359147
N 63.512182599 24.3270518255 16.6600890539
N 63.5121804189 27.4161873841 0.5878432933
N 57.2217764295 27.4161280107 16.6600119463
N 57.2217335655 24.3269580843 0.5875927084
N 68.4030447493 29.0168175774 7.07920423
N 52.3305738373 29.0166990546 10.1684327331
N 68.4031398945 22.7262983354 10.1682439191
N 52.3309339382 22.7263116954 7.0791115236
N 68.4030803761 24.3267804536 11.7690823472
N 52.3306167426 27.4159565478 11.7690161126
N 68.403163272 27.4161437199 5.4785628603
N 52.330989086 24.3270792252 5.4785705942
N 58.8223945873 29.0168619143 16.660108223
N 61.9115267723 29.0168439491 0.5878774507
N 61.9115745484 22.7263109572 16.6600898335
N 58.8223755286 22.7262734642 0.5876013599
N 63.5122291437 33.907791441 7.0792248272
N 63.5121632678 17.8352887483 10.1683887169
N 57.221669511 33.9076553394 10.1684135812
N 57.2216547884 17.8354023762 7.0793197379
N 67.4462962786 25.2838939201 3.1452645866
N 53.2877999691 26.4592833634 3.1452022017
N 53.2875399049 25.2837944457 14.1024666076
N 67.4460597747 26.4591121248 14.1024235125
N 54.8883379044 32.9506923315 8.0362147657
N 54.888285292 18.7921888055 9.2115021336
N 65.8455884052 18.7923122059 8.0361520082
N 65.8455867046 32.9508686582 9.2115626938
N 59.7793555289 20.3929315642 15.7030248675
N 60.9547022876 20.3929461316 1.5445563648
N 59.7792834335 31.3502211138 1.5447135948
N 60.9547217395 31.3502087886 15.7032853492
N 59.7791992785 32.9508953749 3.1453604114
N 60.9546427589 18.792358516 3.1452885264
N 59.7793114645 18.792137604 14.1024866287
N 60.9546219443 32.9506987097 14.1024577699
N 67.4462325691 20.3930159054 8.0360393048
N 53.2877264491 20.392948598 9.2113863912
N 53.2875828551 31.3500973684 8.0362186912
N 67.4461259852 31.3500987793 9.2115318031
N 54.8883898476 25.2838945617 15.7029678949
N 54.8883788712 26.4592972133 1.5444505984
N 65.8455803574 25.2839485608 1.5446317269
N 65.8455326331 26.4593110701 15.7032263103
N 58.8222951991 33.907620844 29.0168278708
N 61.9114635077 17.8352350804 29.0167217974
N 61.9114595787 33.907826026 22.7263451249
N 58.8222956959 17.8355023852 22.7263359147
N 63.512182599 24.3270518255 33.9077890504
N 63.5121804189 27.4161873841 17.8355432933
N 57.2217764295 27.4161280107 33.9077119463
N 57.2217335655 24.3269580843 17.835292705
N 68.4030447493 29.0168175774 24.32690423
N 52.3305738373 29.0166990546 27.4161327331
N 68.4031398945 22.7262983354 27.4159439191
N 52.3309339382 22.7263116954 24.3268115236
N 68.4030803761 24.3267804536 29.0167823472
N 52.3306167426 27.4159565478 29.0167161126
N 68.403163272 27.4161437199 22.7262628603
N 52.330989086 24.3270792252 22.7262705942
N 58.8223945873 29.0168619143 33.907808223
N 61.9115267723 29.0168439491 17.8355774507
N 61.9115745484 22.7263109572 33.9077898335
N 58.8223755286 22.7262734642 17.8353013599
N 63.5122291437 33.907791441 24.3269248272
N 63.5121632678 17.8352887483 27.4160887204
N 57.221669511 33.9076553394 27.4161135812
N 57.2216547884 17.8354023762 24.3270197379
N 67.4462962786 25.2838939201 20.3929645866
N 53.2877999691 26.4592833634 20.3929022017
N 53.2875399049 25.2837944457 31.3501666076
N 67.4460597747 26.4591121248 31.3501235125
N 54.8883379044 32.9506923315 25.2839147657
N 54.888285292 18.7921888055 26.4592021371
N 65.8455884052 18.7923122059 25.2838520047
N 65.8455867046 32.9508686582 26.4592626903
N 59.7793555289 20.3929315642 32.9507248675
N 60.9547022876 20.3929461316 18.7922563648
N 59.7792834335 31.3502211138 18.7924135914
N 60.9547217395 31.3502087886 32.9509853458
N 59.7791992785 32.9508953749 20.3930604114
N 60.9546427589 18.792358516 20.3929885264
N 59.7793114645 18.792137604 31.3501866287
N 60.9546219443 32.9506987097 31.3501577699
N 67.4462325691 20.3930159054 25.2837393048
N 53.2877264491 20.392948598 26.4590863878
N 53.2875828551 31.3500973684 25.2839186912
N 67.4461259852 31.3500987793 26.4592318031
N 54.8883898476 25.2838945617 32.9506678915
N 54.8883788712 26.4592972133 18.7921505984
N 65.8455803574 25.2839485608 18.7923317269
N 65.8455326331 26.4593110701 32.9509263103
H 41.1670332244 14.664429627 47.0658588449
H 45.0711207695 2.5831143537 47.0656727767
H 45.0711349505 14.6645807272 39.1727199978
H 41.1670827702 2.5833487983 39.1728042977
H 47.0658285441 6.6719041306 49.1599768637
H 47.0658280543 10.5759268415 37.0787747457
H 39.1727644313 10.5759445618 49.1598755059
H 39.172781065 6.6718588726 37.0785732546
H 49.1597990193 12.5703500291 41.1670451805
H 37.0784551251 12.5702684717 45.071259986
H 49.1599185562 4.6771507358 45.0710444587
H 37.0787669359 4.6772926119 41.1670109852
H 49.1598841091 6.6713988868 47.0657999371
H 37.07852572 10.5756440413 47.0656354734
H 49.1599040888 10.5757993741 39.1725836754
H 37.078845513 6.6719603374 39.1726747192
H 41.1672249464 12.5705196913 49.1600014935
H 45.0713346168 12.5704204584 37.0788231048
H 45.0714136975 4.6772850816 49.1599750458
H 41.1672499625 4.6773449069 37.0785740722
H 47.0657793399 14.6645678535 41.1671126328
H 47.0656881202 2.5831568072 45.0712204336
H 39.1725795808 14.664437078 45.0712642496
H 39.1726346631 2.5832488927 41.1673715864
H 49.7910846672 6.0406662277 38.4419490816
H 36.4475799069 11.2071410495 38.4418576619
H 36.4472668266 6.0405445004 47.7965759897
H 49.7909496867 11.2069200927 47.7964298499
H 38.4419435071 15.2954824345 40.5360962422
H 38.4418554507 1.9519559214 45.7024529207
H 47.7964771569 1.9520103689 40.5360242572
H 47.7966031617 15.2957654451 45.702526282
H 40.5361660333 3.9465934565 49.7908323886
H 45.7025994261 3.9464916019 36.4473793127
H 40.536036196 13.3011535953 36.4475291745
H 45.7025742513 13.3012177808 49.7912314693
H 40.5359525067 15.295659251 38.4420261685
H 45.7025294591 1.9520872764 38.4419632799
H 40.5360738409 1.9519044335 47.7965231738
H 45.7024393329 15.2954790022 47.7964958672
H 49.7909404971 3.9465863194 40.5359267766
H 36.4474876248 3.9465764192 45.7023213794
H 36.4472917254 13.301106133 40.5360649514
H 49.7909496936 13.3011130045 45.7024640213
H 38.4420374519 6.0407019684 49.790849481
H 38.4419518585 11.2071688839 36.4472222827
H 47.7965307455 6.0407169153 36.4474683626
H 47.7966327657 11.207173727 49.7911290042
H 40.9110690982 2.311036581 45.3277577008
H 44.9806318325 15.6193531944 43.7013314784
H 45.3276379156 2.3112091822 40.9108780903
H 40.9109201919 14.9366386271 40.9108350124
H 43.7013190083 6.7625519637 36.1235910313
H 45.32750229 10.8323501912 49.432146853
H 42.5371631231 10.4851302884 36.1236438989
H 40.9109040032 6.41545097 49.4318630455
H 36.1236175824 9.2061041003 41.2580364774
H 49.4317426738 10.832083214 45.3276439523
H 36.1234114517 8.0418534665 44.9804079125
H 49.4321233168 6.4155300542 40.9108148844
H 36.8065357829 6.4157439429 45.3277177862
H 50.1146622024 10.4851082907 43.7013591851
H 36.806544217 10.8323779255 40.9109560637
H 50.1151227505 6.7625967698 42.5370638005
H 40.9108665171 10.8321323596 36.806567191
H 44.9805448248 9.206057942 50.1150679339
H 45.3275745406 6.4155109782 36.8065935489
H 41.2580004539 8.0416937839 50.1148671707
H 43.701393715 1.6282448889 41.2580688203
H 45.3275720362 14.9364439868 45.3276250108
H 42.537224863 1.6279744726 44.9804315833
H 42.5371525675 15.6196862371 41.2579115282
H 49.5348141977 10.9350212649 36.7037957978
H 36.3566767078 6.995730764 35.0774763696
H 36.7036801036 10.934938438 49.534598836
H 49.8816347059 6.995769523 51.1611338294
H 35.0774670283 15.3863898351 44.7474325212
H 36.7039227753 2.2082178187 40.8080363368
H 49.5349464496 2.2085489746 45.4303046049
H 51.160982605 15.3862701982 41.4911140096
H 45.4304459394 2.208211137 49.5346742257
H 41.4910141213 0.5822140201 36.3568266213
H 44.7473856558 16.6657194759 36.3569127253
H 41.4911388566 16.6655675616 49.8818515233
H 45.4303734129 15.0394882111 36.7039569051
H 40.808134183 2.208537222 36.7036971858
H 44.7475152999 1.8613935782 51.16099166
H 40.8081370358 15.0392794863 49.5349343659
H 49.8819749512 0.5822614892 44.7473884189
H 36.356637114 0.5820420053 41.4910313345
H 36.7037142851 15.0392892347 45.4304316204
H 49.5346886207 15.0393451069 40.8081268355
H 35.0774423675 10.251935741 49.8817801523
H 36.7039733387 6.3127871438 36.7036899693
H 51.1610859912 10.2520596001 36.3567917741
H 49.5345353887 6.3127016332 49.5349123337
H 41.2578523479 1.6281244206 43.7014063507
H 43.7013416304 15.6193780311 44.9804007789
H 44.9806889845 1.6282651343 42.5371595425
H 41.2579908504 15.6195910333 42.5371108901
H 44.9805018676 8.0417587353 36.1236389247
H 43.7012826812 10.4851514582 50.1151475527
H 41.257967873 9.2059260074 36.1235314784
H 42.5371709121 6.7625047602 50.1148829282
H 36.123523779 10.4853193128 42.5371892775
H 50.1146907888 9.2058625704 44.9804659786
H 36.1236372585 6.7625255057 43.7013653736
H 50.1151188491 8.0417718573 41.257895443
H 49.8819310938 10.2520392237 35.0775559816
H 35.077623765 6.9956282713 36.3567891835
H 36.3567189612 10.2520262672 51.1609056527
H 51.1608324776 6.9956620975 49.881953571
H 36.3567144975 16.6655341666 44.7474387235
H 35.0775707594 1.8613258672 41.4908805723
H 51.1611690561 1.8614657495 44.7472490299
H 49.8819241706 16.6655544878 41.4911147823
H 44.7474341046 0.5820362377 49.8819805361
H 41.4911328924 1.8612504154 35.0775089126
H 44.747423618 15.386570698 35.0776989374
H 41.4912096032 15.3864841318 51.161124864
H 41.1670332244 14.664429627 64.3135588449
H 45.0711207695 2.5831143537 64.3133727767
H 45.0711349505 14.6645807272 56.4204199978
H 41.1670827702 2.5833487983 56.4205043011
H 47.0658285441 6.6719041306 66.4076768603
H 47.0658280543 10.5759268415 54.3264747457
H 39.1727644313 10.5759445618 66.4075755059
H 39.172781065 6.6718588726 54.3262732546
H 49.1597990193 12.5703500291 58.4147451771
H 37.0784551251 12.5702684717 62.318959986
H 49.1599185562 4.6771507358 62.3187444587
H 37.0787669359 4.6772926119 58.4147109818
H 49.1598841091 6.6713988868 64.3134999371
H 37.07852572 10.5756440413 64.3133354699
H 49.1599040888 10.5757993741 56.4202836754
H 37.078845513 6.6719603374 56.4203747192
H 41.1672249464 12.5705196913 66.4077014935
H 45.0713346168 12.5704204584 54.3265231048
H 45.0714136975 4.6772850816 66.4076750424
H 41.1672499625 4.6773449069 54.3262740687
H 47.0657793399 14.6645678535 58.4148126328
H 47.0656881202 2.5831568072 62.3189204336
H 39.1725795808 14.664437078 62.3189642496
H 39.1726346631 2.5832488927 58.4150715864
H 49.7910846672 6.0406662277 55.6896490816
H 36.4475799069 11.2071410495 55.6895576619
H 36.4472668266 6.0405445004 65.0442759897
H 49.7909496867 11.2069200927 65.0441298499
H 38.4419435071 15.2954824345 57.7837962456
H 38.4418554507 1.9519559214 62.9501529207
H 47.7964771569 1.9520103689 57.7837242572
H 47.7966031617 15.2957654451 62.950226282
H 40.5361660333 3.9465934565 67.0385323886
H 45.7025994261 3.9464916019 53.6950793127
H 40.536036196 13.3011535953 53.6952291745
H 45.7025742513 13.3012177808 67.0389314693
H 40.5359525067 15.295659251 55.6897261719
H 45.7025294591 1.9520872764 55.6896632764
H 40.5360738409 1.9519044335 65.0442231738
H 45.7024393329 15.2954790022 65.0441958638
H 49.7909404971 3.9465863194 57.7836267766
H 36.4474876248 3.9465764192 62.9500213828
H 36.4472917254 13.301106133 57.7837649549
H 49.7909496936 13.3011130045 62.9501640213
H 38.4420374519 6.0407019684 67.0385494776
H 38.4419518585 11.2071688839 53.6949222827
H 47.7965307455 6.0407169153 53.6951683591
H 47.7966327657 11.207173727 67.0388290042
H 40.9110690982 2.311036581 62.5754576974
H 44.9806318325 15.6193531944 60.9490314784
H 45.3276379156 2.3112091822 58.1585780903
H 40.9109201919 14.9366386271 58.1585350124
H 43.7013190083 6.7625519637 53.3712910313
H 45.32750229 10.8323501912 66.679846853
H 42.5371631231 10.4851302884 53.3713438989
H 40.9109040032 6.41545097 66.6795630455
H 36.1236175824 9.2061041003 58.5057364774
H 49.4317426738 10.832083214 62.5753439523
H 36.1234114517 8.0418534665 62.2281079091
H 49.4321233168 6.4155300542 58.1585148878
H 36.8065357829 6.4157439429 62.5754177862
H 50.1146622024 10.4851082907 60.9490591851
H 36.806544217 10.8323779255 58.1586560672
H 50.1151227505 6.7625967698 59.7847638005
H 40.9108665171 10.8321323596 54.054267191
H 44.9805448248 9.206057942 67.3627679339
H 45.3275745406 6.4155109782 54.0542935455
H 41.2580004539 8.0416937839 67.3625671707
H 43.701393715 1.6282448889 58.5057688203
H 45.3275720362 14.9364439868 62.5753250108
H 42.537224863 1.6279744726 62.2281315833
H 42.5371525675 15.6196862371 58.5056115282
H 49.5348141977 10.9350212649 53.9514957978
H 36.3566767078 6.995730764 52.3251763696
H 36.7036801036 10.934938438 66.782298836
H 49.8816347059 6.995769523 68.4088338294
H 35.0774670283 15.3863898351 61.9951325212
H 36.7039227753 2.2082178187 58.0557363368
H 49.5349464496 2.2085489746 62.6780046014
H 51.160982605 15.3862701982 58.7388140096
H 45.4304459394 2.208211137 66.7823742257
H 41.4910141213 0.5822140201 53.6045266213
H 44.7473856558 16.6657194759 53.6046127253
H 41.4911388566 16.6655675616 67.1295515233
H 45.4303734129 15.0394882111 53.9516569051
H 40.808134183 2.208537222 53.9513971858
H 44.7475152999 1.8613935782 68.40869166
H 40.8081370358 15.0392794863 66.7826343659
H 49.8819749512 0.5822614892 61.9950884189
H 36.356637114 0.5820420053 58.7387313345
H 36.7037142851 15.0392892347 62.6781316204
H 49.5346886207 15.0393451069 58.0558268355
H 35.0774423675 10.251935741 67.1294801488
H 36.7039733387 6.3127871438 53.9513899659
H 51.1610859912 10.2520596001 53.6044917741
H 49.5345353887 6.3127016332 66.7826123337
H 41.2578523479 1.6281244206 60.9491063507
H 43.7013416304 15.6193780311 62.2281007789
H 44.9806889845 1.6282651343 59.7848595425
H 41.2579908504 15.6195910333 59.7848108901
H 44.9805018676 8.0417587353 53.3713389281
H 43.7012826812 10.4851514582 67.3628475527
H 41.257967873 9.2059260074 53.3712314784
H 42.5371709121 6.7625047602 67.3625829282
H 36.123523779 10.4853193128 59.7848892775
H 50.1146907888 9.2058625704 62.2281659786
H 36.1236372585 6.7625255057 60.9490653736
H 50.1151188491 8.0417718573 58.5055954396
H 49.8819310938 10.2520392237 52.3252559816
H 35.077623765 6.9956282713 53.6044891835
H 36.3567189612 10.2520262672 68.4086056527
H 51.1608324776 6.9956620975 67.129653571
H 36.3567144975 16.6655341666 61.9951387235
H 35.0775707594 1.8613258672 58.7385805723
H 51.1611690561 1.8614657495 61.9949490299
H 49.8819241706 16.6655544878 58.7388147823
H 44.7474341046 0.5820362377 67.1296805361
H 41.4911328924 1.8612504154 52.3252089126
H 44.747423618 15.386570698 52.3253989339
H 41.4912096032 15.3864841318 68.408824864
H 41.1670332244 31.912129627 47.0658588449
H 45.0711207695 19.8308143537 47.0656727767
H 45.0711349505 31.9122807272 39.1727199978
H 41.1670827702 19.8310487983 39.1728042977
H 47.0658285441 23.9196041306 49.1599768637
H 47.0658280543 27.8236268415 37.0787747457
H 39.1727644313 27.8236445618 49.1598755059
H 39.172781065 23.9195588761 37.0785732546
H 49.1597990193 29.8180500291 41.1670451805
H 37.0784551251 29.8179684717 45.071259986
H 49.1599185562 21.9248507358 45.0710444587
H 37.0787669359 21.9249926119 41.1670109852
H 49.1598841091 23.9190988868 47.0657999371
H 37.07852572 27.8233440413 47.0656354734
H 49.1599040888 27.8234993741 39.1725836754
H 37.078845513 23.919660334 39.1726747192
H 41.1672249464 29.8182196913 49.1600014935
H 45.0713346168 29.8181204584 37.0788231048
H 45.0714136975 21.9249850816 49.1599750458
H 41.1672499625 21.9250449069 37.0785740722
H 47.0657793399 31.9122678535 41.1671126328
H 47.0656881202 19.8308568038 45.0712204336
H 39.1725795808 31.912137078 45.0712642496
H 39.1726346631 19.8309488927 41.1673715864
H 49.7910846672 23.2883662277 38.4419490816
H 36.4475799069 28.4548410495 38.4418576619
H 36.4472668266 23.2882445004 47.7965759897
H 49.7909496867 28.4546200927 47.7964298499
H 38.4419435071 32.5431824345 40.5360962422
H 38.4418554507 19.1996559214 45.7024529207
H 47.7964771569 19.1997103689 40.5360242572
H 47.7966031617 32.5434654451 45.702526282
H 40.5361660333 21.1942934565 49.7908323886
H 45.7025994261 21.1941916019 36.4473793127
H 40.536036196 30.5488535953 36.4475291745
H 45.7025742513 30.5489177808 49.7912314693
H 40.5359525067 32.543359251 38.4420261685
H 45.7025294591 19.1997872764 38.4419632799
H 40.5360738409 19.1996044301 47.7965231738
H 45.7024393329 32.5431790022 47.7964958672
H 49.7909404971 21.1942863194 40.5359267766
H 36.4474876248 21.1942764192 45.7023213794
H 36.4472917254 30.548806133 40.5360649514
H 49.7909496936 30.5488130045 45.7024640213
H 38.4420374519 23.288401965 49.790849481
H 38.4419518585 28.4548688839 36.4472222827
H 47.7965307455 23.2884169118 36.4474683626
H 47.7966327657 28.4548737236 49.7911290042
H 40.9110690982 19.558736581 45.3277577008
H 44.9806318325 32.8670531944 43.7013314784
H 45.3276379156 19.5589091822 40.9108780903
H 40.9109201919 32.1843386306 40.9108350124
H 43.7013190083 24.0102519637 36.1235910313
H 45.32750229 28.0800501877 49.432146853
H 42.5371631231 27.7328302884 36.1236438989
H 40.9109040032 23.66315097 49.4318630455
H 36.1236175824 26.4538041003 41.2580364774
H 49.4317426738 28.079783214 45.3276439523
H 36.1234114517 25.28955347 44.9804079125
H 49.4321233168 23.6632300542 40.9108148844
H 36.8065357829 23.6634439464 45.3277177862
H 50.1146622024 27.7328082907 43.7013591851
H 36.806544217 28.080077922 40.9109560637
H 50.1151227505 24.0102967698 42.5370638005
H 40.9108665171 28.0798323596 36.806567191
H 44.9805448248 26.453757942 50.1150679339
H 45.3275745406 23.6632109782 36.8065935489
H 41.2580004539 25.2893937839 50.1148671707
H 43.701393715 18.8759448924 41.2580688203
H 45.3275720362 32.1841439868 45.3276250108
H 42.537224863 18.8756744726 44.9804315833
H 42.5371525675 32.8673862371 41.2579115282
H 49.5348141977 28.1827212649 36.7037957978
H 36.3566767078 24.243430764 35.0774763696
H 36.7036801036 28.182638438 49.534598836
H 49.8816347059 24.243469523 51.1611338294
H 35.0774670283 32.6340898351 44.7474325212
H 36.7039227753 19.4559178187 40.8080363368
H 49.5349464496 19.4562489746 45.4303046049
H 51.160982605 32.6339701982 41.4911140096
H 45.4304459394 19.455911137 49.5346742257
H 41.4910141213 17.8299140201 36.3568266213
H 44.7473856558 33.9134194759 36.3569127253
H 41.4911388566 33.913267565 49.8818515233
H 45.4303734129 32.2871882111 36.7039569051
H 40.808134183 19.4562372186 36.7036971858
H 44.7475152999 19.1090935782 51.16099166
H 40.8081370358 32.2869794863 49.5349343659
H 49.8819749512 17.8299614857 44.7473884189
H 36.356637114 17.8297420019 41.4910313345
H 36.7037142851 32.2869892347 45.4304316204
H 49.5346886207 32.2870451069 40.8081268355
H 35.0774423675 27.499635741 49.8817801523
H 36.7039733387 23.5604871404 36.7036899693
H 51.1610859912 27.4997596001 36.3567917741
H 49.5345353887 23.5604016332 49.5349123337
H 41.2578523479 18.8758244206 43.7014063507
H 43.7013416304 32.8670780276 44.9804007789
H 44.9806889845 18.8759651343 42.5371595425
H 41.2579908504 32.8672910333 42.5371108901
H 44.9805018676 25.2894587353 36.1236389247
H 43.7012826812 27.7328514582 50.1151475527
H 41.257967873 26.4536260074 36.1235314784
H 42.5371709121 24.0102047602 50.1148829282
H 36.123523779 27.7330193128 42.5371892775
H 50.1146907888 26.4535625738 44.9804659786
H 36.1236372585 24.0102255057 43.7013653736
H 50.1151188491 25.2894718573 41.257895443
H 49.8819310938 27.4997392237 35.0775559816
H 35.077623765 24.2433282678 36.3567891835
H 36.3567189612 27.4997262672 51.1609056527
H 51.1608324776 24.2433620975 49.881953571
H 36.3567144975 33.9132341666 44.7474387235
H 35.0775707594 19.1090258672 41.4908805723
H 51.1611690561 19.1091657495 44.7472490299
H 49.8819241706 33.9132544878 41.4911147823
H 44.7474341046 17.8297362377 49.8819805361
H 41.4911328924 19.1089504154 35.0775089126
H 44.747423618 32.634270698 35.0776989374
H 41.4912096032 32.6341841352 51.161124864
H 41.1670332244 31.912129627 64.3135588449
H 45.0711207695 19.8308143537 64.3133727767
H 45.0711349505 31.9122807272 56.4204199978
H 41.1670827702 19.8310487983 56.4205043011
H 47.0658285441 23.9196041306 66.4076768603
H 47.0658280543 27.8236268415 54.3264747457
H 39.1727644313 27.8236445618 66.4075755059
H 39.172781065 23.9195588761 54.3262732546
H 49.1597990193 29.8180500291 58.4147451771
H 37.0784551251 29.8179684717 62.318959986
H 49.1599185562 21.9248507358 62.3187444587
H 37.0787669359 21.9249926119 58.4147109818
H 49.1598841091 23.9190988868 64.3134999371
H 37.07852572 27.8233440413 64.3133354699
H 49.1599040888 27.8234993741 56.4202836754
H 37.078845513 23.919660334 56.4203747192
H 41.1672249464 29.8182196913 66.4077014935
H 45.0713346168 29.8181204584 54.3265231048
H 45.0714136975 21.9249850816 66.4076750424
H 41.1672499625 21.9250449069 54.3262740687
H 47.0657793399 31.9122678535 58.4148126328
H 47.0656881202 19.8308568038 62.3189204336
H 39.1725795808 31.912137078 62.3189642496
H 39.1726346631 19.8309488927 58.4150715864
H 49.7910846672 23.2883662277 55.6896490816
H 36.4475799069 28.4548410495 55.6895576619
H 36.4472668266 23.2882445004 65.0442759897
H 49.7909496867 28.4546200927 65.0441298499
H 38.4419435071 32.5431824345 57.7837962456
H 38.4418554507 19.1996559214 62.9501529207
H 47.7964771569 19.1997103689 57.7837242572
H 47.7966031617 32.5434654451 62.950226282
H 40.5361660333 21.1942934565 67.0385323886
H 45.7025994261 21.1941916019 53.6950793127
H 40.536036196 30.5488535953 53.6952291745
H 45.7025742513 30.5489177808 67.0389314693
H 40.5359525067 32.543359251 55.6897261719
H 45.7025294591 19.1997872764 55.6896632764
H 40.5360738409 19.1996044301 65.0442231738
H 45.7024393329 32.5431790022 65.0441958638
H 49.7909404971 21.1942863194 57.7836267766
H 36.4474876248 21.1942764192 62.9500213828
H 36.4472917254 30.548806133 57.7837649549
H 49.7909496936 30.5488130045 62.9501640213
H 38.4420374519 23.288401965 67.0385494776
H 38.4419518585 28.4548688839 53.6949222827
H 47.7965307455 23.2884169118 53.6951683591
H 47.7966327657 28.4548737236 67.0388290042
H 40.9110690982 19.558736581 62.5754576974
H 44.9806318325 32.8670531944 60.9490314784
H 45.3276379156 19.5589091822 58.1585780903
H 40.9109201919 32.1843386306 58.1585350124
H 43.7013190083 24.0102519637 53.3712910313
H 45.32750229 28.0800501877 66.679846853
H 42.5371631231 27.7328302884 53.3713438989
H 40.9109040032 23.66315097 66.6795630455
H 36.1236175824 26.4538041003 58.5057364774
H 49.4317426738 28.079783214 62.5753439523
H 36.1234114517 25.28955347 62.2281079091
H 49.4321233168 23.6632300542 58.1585148878
H 36.8065357829 23.6634439464 62.5754177862
H 50.1146622024 27.7328082907 60.9490591851
H 36.806544217 28.080077922 58.1586560672
H 50.1151227505 24.0102967698 59.7847638005
H 40.9108665171 28.0798323596 54.054267191
H 44.9805448248 26.453757942 67.3627679339
H 45.3275745406 23.6632109782 54.0542935455
H 41.2580004539 25.2893937839 67.3625671707
H 43.701393715 18.8759448924 58.5057688203
H 45.3275720362 32.1841439868 62.5753250108
H 42.537224863 18.8756744726 62.2281315833
H 42.5371525675 32.8673862371 58.5056115282
H 49.5348141977 28.1827212649 53.9514957978
H 36.3566767078 24.243430764 52.3251763696
H 36.7036801036 28.182638438 66.782298836
H 49.8816347059 24.243469523 68.4088338294
H 35.0774670283 32.6340898351 61.9951325212
H 36.7039227753 19.4559178187 58.0557363368
H 49.5349464496 19.4562489746 62.6780046014
H 51.160982605 32.6339701982 58.7388140096
H 45.4304459394 19.455911137 66.7823742257
H 41.4910141213 17.8299140201 53.6045266213
H 44.7473856558 33.9134194759 53.6046127253
H 41.4911388566 33.913267565 67.1295515233
H 45.4303734129 32.2871882111 53.9516569051
H 40.808134183 19.4562372186 53.9513971858
H 44.7475152999 19.1090935782 68.40869166
H 40.8081370358 32.2869794863 66.7826343659
H 49.8819749512 17.8299614857 61.9950884189
H 36.356637114 17.8297420019 58.7387313345
H 36.7037142851 32.2869892347 62.6781316204
H 49.5346886207 32.2870451069 58.0558268355
H 35.0774423675 27.499635741 67.1294801488
H 36.7039733387 23.5604871404 53.9513899659
H 51.1610859912 27.4997596001 53.6044917741
H 49.5345353887 23.5604016332 66.7826123337
H 41.2578523479 18.8758244206 60.9491063507
H 43.7013416304 32.8670780276 62.2281007789
H 44.9806889845 18.8759651343 59.7848595425
H 41.2579908504 32.8672910333 59.7848108901
H 44.9805018676 25.2894587353 53.3713389281
H 43.7012826812 27.7328514582 67.3628475527
H 41.257967873 26.4536260074 53.3712314784
H 42.5371709121 24.0102047602 67.3625829282
H 36.123523779 27.7330193128 59.7848892775
H 50.1146907888 26.4535625738 62.2281659786
H 36.1236372585 24.0102255057 60.9490653736
H 50.1151188491 25.2894718573 58.5055954396
H 49.8819310938 27.4997392237 52.3252559816
H 35.077623765 24.2433282678 53.6044891835
H 36.3567189612 27.4997262672 68.4086056527
H 51.1608324776 24.2433620975 67.129653571
H 36.3567144975 33.9132341666 61.9951387235
H 35.0775707594 19.1090258672 58.7385805723
H 51.1611690561 19.1091657495 61.9949490299
H 49.8819241706 33.9132544878 58.7388147823
H 44.7474341046 17.8297362377 67.1296805361
H 41.4911328924 19.1089504154 52.3252089126
H 44.747423618 32.634270698 52.3253989339
H 41.4912096032 32.6341841352 68.408824864
H 58.4147332244 14.664429627 47.0658588449
H 62.3188207695 2.5831143537 47.0656727767
H 62.3188349505 14.6645807272 39.1727199978
H 58.4147827667 2.5833487983 39.1728042977
H 64.3135285441 6.6719041306 49.1599768637
H 64.3135280543 10.5759268415 37.0787747457
H 56.4204644313 10.5759445618 49.1598755059
H 56.420481065 6.6718588726 37.0785732546
H 66.4074990193 12.5703500291 41.1670451805
H 54.3261551286 12.5702684717 45.071259986
H 66.4076185562 4.6771507358 45.0710444587
H 54.3264669359 4.6772926119 41.1670109852
H 66.4075841091 6.6713988868 47.0657999371
H 54.3262257234 10.5756440413 47.0656354734
H 66.4076040888 10.5757993741 39.1725836754
H 54.3265455165 6.6719603374 39.1726747192
H 58.4149249464 12.5705196913 49.1600014935
H 62.3190346202 12.5704204584 37.0788231048
H 62.3191136975 4.6772850816 49.1599750458
H 58.4149499625 4.6773449069 37.0785740722
H 64.3134793433 14.6645678535 41.1671126328
H 64.3133881237 2.5831568072 45.0712204336
H 56.4202795808 14.664437078 45.0712642496
H 56.4203346631 2.5832488927 41.1673715864
H 67.0387846672 6.0406662277 38.4419490816
H 53.6952799069 11.2071410495 38.4418576619
H 53.6949668232 6.0405445004 47.7965759897
H 67.0386496867 11.2069200927 47.7964298499
H 55.6896435071 15.2954824345 40.5360962422
H 55.6895554507 1.9519559214 45.7024529207
H 65.0441771569 1.9520103689 40.5360242572
H 65.0443031617 15.2957654451 45.702526282
H 57.7838660333 3.9465934565 49.7908323886
H 62.9502994261 3.9464916019 36.4473793127
H 57.783736196 13.3011535953 36.4475291745
H 62.9502742513 13.3012177808 49.7912314693
H 57.7836525033 15.295659251 38.4420261685
H 62.9502294591 1.9520872764 38.4419632799
H 57.7837738409 1.9519044335 47.7965231738
H 62.9501393295 15.2954790022 47.7964958672
H 67.0386404971 3.9465863194 40.5359267766
H 53.6951876248 3.9465764192 45.7023213794
H 53.6949917254 13.301106133 40.5360649514
H 67.0386496936 13.3011130045 45.7024640213
H 55.6897374519 6.0407019684 49.790849481
H 55.6896518585 11.2071688839 36.4472222827
H 65.0442307455 6.0407169153 36.4474683626
H 65.0443327691 11.207173727 49.7911290042
H 58.1587690982 2.311036581 45.3277577008
H 62.2283318325 15.6193531944 43.7013314784
H 62.5753379156 2.3112091822 40.9108780903
H 58.1586201919 14.9366386271 40.9108350124
H 60.9490190083 6.7625519637 36.1235910313
H 62.57520229 10.8323501912 49.432146853
H 59.7848631231 10.4851302884 36.1236438989
H 58.1586040032 6.41545097 49.4318630455
H 53.3713175824 9.2061041003 41.2580364774
H 66.6794426738 10.832083214 45.3276439523
H 53.3711114517 8.0418534665 44.9804079125
H 66.6798233168 6.4155300542 40.9108148844
H 54.0542357795 6.4157439429 45.3277177862
H 67.3623622024 10.4851082907 43.7013591851
H 54.054244217 10.8323779255 40.9109560637
H 67.3628227505 6.7625967698 42.5370638005
H 58.1585665171 10.8321323596 36.806567191
H 62.2282448213 9.206057942 50.1150679339
H 62.5752745406 6.4155109782 36.8065935489
H 58.5057004573 8.0416937839 50.1148671707
H 60.949093715 1.6282448889 41.2580688203
H 62.5752720397 14.9364439868 45.3276250108
H 59.7849248664 1.6279744726 44.9804315833
H 59.7848525675 15.6196862371 41.2579115282
H 66.7825141977 10.9350212649 36.7037957978
H 53.6043767078 6.995730764 35.0774763696
H 53.9513801002 10.934938438 49.534598836
H 67.1293347059 6.995769523 51.1611338294
H 52.3251670283 15.3863898351 44.7474325212
H 53.9516227753 2.2082178187 40.8080363368
H 66.7826464496 2.2085489746 45.4303046049
H 68.408682605 15.3862701982 41.4911140096
H 62.678145936 2.208211137 49.5346742257
H 58.7387141213 0.5822140201 36.3568266213
H 61.9950856558 16.6657194759 36.3569127253
H 58.7388388566 16.6655675616 49.8818515233
H 62.6780734129 15.0394882111 36.7039569051
H 58.055834183 2.208537222 36.7036971858
H 61.9952152999 1.8613935782 51.16099166
H 58.0558370392 15.0392794863 49.5349343659
H 67.1296749512 0.5822614892 44.7473884189
H 53.604337114 0.5820420053 41.4910313345
H 53.9514142886 15.0392892347 45.4304316204
H 66.7823886241 15.0393451069 40.8081268355
H 52.3251423641 10.251935741 49.8817801523
H 53.9516733387 6.3127871438 36.7036899693
H 68.4087859946 10.2520596001 36.3567917741
H 66.7822353887 6.3127016332 49.5349123337
H 58.5055523479 1.6281244206 43.7014063507
H 60.9490416269 15.6193780311 44.9804007789
H 62.2283889879 1.6282651343 42.5371595425
H 58.5056908504 15.6195910333 42.5371108901
H 62.2282018676 8.0417587353 36.1236389247
H 60.9489826812 10.4851514582 50.1151475527
H 58.505667873 9.2059260074 36.1235314784
H 59.7848709121 6.7625047602 50.1148829282
H 53.371223779 10.4853193128 42.5371892775
H 67.3623907888 9.2058625704 44.9804659786
H 53.3713372585 6.7625255057 43.7013653736
H 67.3628188456 8.0417718573 41.257895443
H 67.1296310938 10.2520392237 35.0775559816
H 52.325323765 6.9956282713 36.3567891835
H 53.6044189612 10.2520262672 51.1609056527
H 68.4085324776 6.9956620975 49.881953571
H 53.6044144975 16.6655341666 44.7474387235
H 52.3252707594 1.8613258672 41.4908805723
H 68.4088690561 1.8614657495 44.7472490299
H 67.1296241706 16.6655544878 41.4911147823
H 61.9951341046 0.5820362377 49.8819805361
H 58.7388328924 1.8612504154 35.0775089126
H 61.995123618 15.386570698 35.0776989374
H 58.7389096032 15.3864841318 51.161124864
H 58.4147332244 14.664429627 64.3135588449
H 62.3188207695 2.5831143537 64.3133727767
H 62.3188349505 14.6645807272 56.4204199978
H 58.4147827667 2.5833487983 56.4205043011
H 64.3135285441 6.6719041306 66.4076768603
H 64.3135280543 10.5759268415 54.3264747457
H 56.4204644313 10.5759445618 66.4075755059
H 56.420481065 6.6718588726 54.3262732546
H 66.4074990193 12.5703500291 58.4147451771
H 54.3261551286 12.5702684717 62.318959986
H 66.4076185562 4.6771507358 62.3187444587
H 54.3264669359 4.6772926119 58.4147109818
H 66.4075841091 6.6713988868 64.3134999371
H 54.3262257234 10.5756440413 64.3133354699
H 66.4076040888 10.5757993741 56.4202836754
H 54.3265455165 6.6719603374 56.4203747192
H 58.4149249464 12.5705196913 66.4077014935
H 62.3190346202 12.5704204584 54.3265231048
H 62.3191136975 4.6772850816 66.4076750424
H 58.4149499625 4.6773449069 54.3262740687
H 64.3134793433 14.6645678535 58.4148126328
H 64.3133881237 2.5831568072 62.3189204336
H 56.4202795808 14.664437078 62.3189642496
H 56.4203346631 2.5832488927 58.4150715864
H 67.0387846672 6.0406662277 55.6896490816
H 53.6952799069 11.2071410495 55.6895576619
H 53.6949668232 6.0405445004 65.0442759897
H 67.0386496867 11.2069200927 65.0441298499
H 55.6896435071 15.2954824345 57.7837962456
H 55.6895554507 1.9519559214 62.9501529207
H 65.0441771569 1.9520103689 57.7837242572
H 65.0443031617 15.2957654451 62.950226282
H 57.7838660333 3.9465934565 67.0385323886
H 62.9502994261 3.9464916019 53.6950793127
H 57.783736196 13.3011535953 53.6952291745
H 62.9502742513 13.3012177808 67.0389314693
H 57.7836525033 15.295659251 55.6897261719
H 62.9502294591 1.9520872764 55.6896632764
H 57.7837738409 1.9519044335 65.0442231738
H 62.9501393295 15.2954790022 65.0441958638
H 67.0386404971 3.9465863194 57.7836267766
H 53.6951876248 3.9465764192 62.9500213828
H 53.6949917254 13.301106133 57.7837649549
H 67.0386496936 13.3011130045 62.9501640213
H 55.6897374519 6.0407019684 67.0385494776
H 55.6896518585 11.2071688839 53.6949222827
H 65.0442307455 6.0407169153 53.6951683591
H 65.0443327691 11.207173727 67.0388290042
H 58.1587690982 2.311036581 62.5754576974
H 62.2283318325 15.6193531944 60.9490314784
H 62.5753379156 2.3112091822 58.1585780903
H 58.1586201919 14.9366386271 58.1585350124
H 60.9490190083 6.7625519637 53.3712910313
H 62.57520229 10.8323501912 66.679846853
H 59.7848631231 10.4851302884 53.3713438989
H 58.1586040032 6.41545097 66.6795630455
H 53.3713175824 9.2061041003 58.5057364774
H 66.6794426738 10.832083214 62.5753439523
H 53.3711114517 8.0418534665 62.2281079091
H 66.6798233168 6.4155300542 58.1585148878
H 54.0542357795 6.4157439429 62.5754177862
H 67.3623622024 10.4851082907 60.9490591851
H 54.054244217 10.8323779255 58.1586560672
H 67.3628227505 6.7625967698 59.7847638005
H 58.1585665171 10.8321323596 54.054267191
H 62.2282448213 9.206057942 67.3627679339
H 62.5752745406 6.4155109782 54.0542935455
H 58.5057004573 8.0416937839 67.3625671707
H 60.949093715 1.6282448889 58.5057688203
H 62.5752720397 14.9364439868 62.5753250108
H 59.7849248664 1.6279744726 62.2281315833
H 59.7848525675 15.6196862371 58.5056115282
H 66.7825141977 10.9350212649 53.9514957978
H 53.6043767078 6.995730764 52.3251763696
H 53.9513801002 10.934938438 66.782298836
H 67.1293347059 6.995769523 68.4088338294
H 52.3251670283 15.3863898351 61.9951325212
H 53.9516227753 2.2082178187 58.0557363368
H 66.7826464496 2.2085489746 62.6780046014
H 68.408682605 15.3862701982 58.7388140096
H 62.678145936 2.208211137 66.7823742257
H 58.7387141213 0.5822140201 53.6045266213
H 61.9950856558 16.6657194759 53.6046127253
H 58.7388388566 16.6655675616 67.1295515233
H 62.6780734129 15.0394882111 53.9516569051
H 58.055834183 2.208537222 53.9513971858
H 61.9952152999 1.8613935782 68.40869166
H 58.0558370392 15.0392794863 66.7826343659
H 67.1296749512 0.5822614892 61.9950884189
H 53.604337114 0.5820420053 58.7387313345
H 53.9514142886 15.0392892347 62.6781316204
H 66.7823886241 15.0393451069 58.0558268355
H 52.3251423641 10.251935741 67.1294801488
H 53.9516733387 6.3127871438 53.9513899659
H 68.4087859946 10.2520596001 53.6044917741
H 66.7822353887 6.3127016332 66.7826123337
H 58.5055523479 1.6281244206 60.9491063507
H 60.9490416269 15.6193780311 62.2281007789
H 62.2283889879 1.6282651343 59.7848595425
H 58.5056908504 15.6195910333 59.7848108901
H 62.2282018676 8.0417587353 53.3713389281
H 60.9489826812 10.4851514582 67.3628475527
H 58.505667873 9.2059260074 53.3712314784
H 59.7848709121 6.7625047602 67.3625829282
H 53.371223779 10.4853193128 59.7848892775
H 67.3623907888 9.2058625704 62.2281659786
H 53.3713372585 6.7625255057 60.9490653736
H 67.3628188456 8.0417718573 58.5055954396
H 67.1296310938 10.2520392237 52.3252559816
H 52.325323765 6.9956282713 53.6044891835
H 53.6044189612 10.2520262672 68.4086056527
H 68.4085324776 6.9956620975 67.129653571
H 53.6044144975 16.6655341666 61.9951387235
H 52.3252707594 1.8613258672 58.7385805723
H 68.4088690561 1.8614657495 61.9949490299
H 67.1296241706 16.6655544878 58.7388147823
H 61.9951341046 0.5820362377 67.1296805361
H 58.7388328924 1.8612504154 52.3252089126
H 61.995123618 15.386570698 52.3253989339
H 58.7389096032 15.3864841318 68.408824864
H 58.4147332244 31.912129627 47.0658588449
H 62.3188207695 19.8308143537 47.0656727767
H 62.3188349505 31.9122807272 39.1727199978
H 58.4147827667 19.8310487983 39.1728042977
H 64.3135285441 23.9196041306 49.1599768637
H 64.3135280543 27.8236268415 37.0787747457
H 56.4204644313 27.8236445618 49.1598755059
H 56.420481065 23.9195588761 37.0785732546
H 66.4074990193 29.8180500291 41.1670451805
H 54.3261551286 29.8179684717 45.071259986
H 66.4076185562 21.9248507358 45.0710444587
H 54.3264669359 21.9249926119 41.1670109852
H 66.4075841091 23.9190988868 47.0657999371
H 54.3262257234 27.8233440413 47.0656354734
H 66.4076040888 27.8234993741 39.1725836754
H 54.3265455165 23.919660334 39.1726747192
H 58.4149249464 29.8182196913 49.1600014935
H 62.3190346202 29.8181204584 37.0788231048
H 62.3191136975 21.9249850816 49.1599750458
H 58.4149499625 21.9250449069 37.0785740722
H 64.3134793433 31.9122678535 41.1671126328
H 64.3133881237 19.8308568038 45.0712204336
H 56.4202795808 31.912137078 45.0712642496
H 56.4203346631 19.8309488927 41.1673715864
H 67.0387846672 23.2883662277 38.4419490816
H 53.6952799069 28.4548410495 38.4418576619
H 53.6949668232 23.2882445004 47.7965759897
H 67.0386496867 28.4546200927 47.7964298499
H 55.6896435071 32.5431824345 40.5360962422
H 55.6895554507 19.1996559214 45.7024529207
H 65.0441771569 19.1997103689 40.5360242572
H 65.0443031617 32.5434654451 45.702526282
H 57.7838660333 21.1942934565 49.7908323886
H 62.9502994261 21.1941916019 36.4473793127
H 57.783736196 30.5488535953 36.4475291745
H 62.9502742513 30.5489177808 49.7912314693
H 57.7836525033 32.543359251 38.4420261685
H 62.9502294591 19.1997872764 38.4419632799
H 57.7837738409 19.1996044301 47.7965231738
H 62.9501393295 32.5431790022 47.7964958672
H 67.0386404971 21.1942863194 40.5359267766
H 53.6951876248 21.1942764192 45.7023213794
H 53.6949917254 30.548806133 40.5360649514
H 67.0386496936 30.5488130045 45.7024640213
H 55.6897374519 23.288401965 49.790849481
H 55.6896518585 28.4548688839 36.4472222827
H 65.0442307455 23.2884169118 36.4474683626
H 65.0443327691 28.4548737236 49.7911290042
H 58.1587690982 19.558736581 45.3277577008
H 62.2283318325 32.8670531944 43.7013314784
H 62.5753379156 19.5589091822 40.9108780903
H 58.1586201919 32.1843386306 40.9108350124
H 60.9490190083 24.0102519637 36.1235910313
H 62.57520229 28.0800501877 49.432146853
H 59.7848631231 27.7328302884 36.1236438989
H 58.1586040032 23.66315097 49.4318630455
H 53.3713175824 26.4538041003 41.2580364774
H 66.6794426738 28.079783214 45.3276439523
H 53.3711114517 25.28955347 44.9804079125
H 66.6798233168 23.6632300542 40.9108148844
H 54.0542357795 23.6634439464 45.3277177862
H 67.3623622024 27.7328082907 43.7013591851
H 54.054244217 28.080077922 40.9109560637
H 67.3628227505 24.0102967698 42.5370638005
H 58.1585665171 28.0798323596 36.806567191
H 62.2282448213 26.453757942 50.1150679339
H 62.5752745406 23.6632109782 36.8065935489
H 58.5057004573 25.2893937839 50.1148671707
H 60.949093715 18.8759448924 41.2580688203
H 62.5752720397 32.1841439868 45.3276250108
H 59.7849248664 18.8756744726 44.9804315833
H 59.7848525675 32.8673862371 41.2579115282
H 66.7825141977 28.1827212649 36.7037957978
H 53.6043767078 24.243430764 35.0774763696
H 53.9513801002 28.182638438 49.534598836
H 67.1293347059 24.243469523 51.1611338294
H 52.3251670283 32.6340898351 44.7474325212
H 53.9516227753 19.4559178187 40.8080363368
H 66.7826464496 19.4562489746 45.4303046049
H 68.408682605 32.6339701982 41.4911140096
H 62.678145936 19.455911137 49.5346742257
H 58.7387141213 17.8299140201 36.3568266213
H 61.9950856558 33.9134194759 36.3569127253
H 58.7388388566 33.913267565 49.8818515233
H 62.6780734129 32.2871882111 36.7039569051
H 58.055834183 19.4562372186 36.7036971858
H 61.9952152999 19.1090935782 51.16099166
H 58.0558370392 32.2869794863 49.5349343659
H 67.1296749512 17.8299614857 44.7473884189
H 53.604337114 17.8297420019 41.4910313345
H 53.9514142886 32.2869892347 45.4304316204
H 66.7823886241 32.2870451069 40.8081268355
H 52.3251423641 27.499635741 49.8817801523
H 53.9516733387 23.5604871404 36.7036899693
H 68.4087859946 27.4997596001 36.3567917741
H 66.7822353887 23.5604016332 49.5349123337
H 58.5055523479 18.8758244206 43.7014063507
H 60.9490416269 32.8670780276 44.9804007789
H 62.2283889879 18.8759651343 42.5371595425
H 58.5056908504 32.8672910333 42.5371108901
H 62.2282018676 25.2894587353 36.1236389247
H 60.9489826812 27.7328514582 50.1151475527
H 58.505667873 26.4536260074 36.1235314784
H 59.7848709121 24.0102047602 50.1148829282
H 53.371223779 27.7330193128 42.5371892775
H 67.3623907888 26.4535625738 44.9804659786
H 53.3713372585 24.0102255057 43.7013653736
H 67.3628188456 25.2894718573 41.257895443
H 67.1296310938 27.4997392237 35.0775559816
H 52.325323765 24.2433282678 36.3567891835
H 53.6044189612 27.4997262672 51.1609056527
H 68.4085324776 24.2433620975 49.881953571
H 53.6044144975 33.9132341666 44.7474387235
H 52.3252707594 19.1090258672 41.4908805723
H 68.4088690561 19.1091657495 44.7472490299
H 67.1296241706 33.9132544878 41.4911147823
H 61.9951341046 17.8297362377 49.8819805361
H 58.7388328924 19.1089504154 35.0775089126
H 61.995123618 32.634270698 35.0776989374
H 58.7389096032 32.6341841352 51.161124864
H 58.4147332244 31.912129627 64.3135588449
H 62.3188207695 19.8308143537 64.3133727767
H 62.3188349505 31.9122807272 56.4204199978
H 58.4147827667 19.8310487983 56.4205043011
H 64.3135285441 23.9196041306 66.4076768603
H 64.3135280543 27.8236268415 54.3264747457
H 56.4204644313 27.8236445618 66.4075755059
H 56.420481065 23.9195588761 54.3262732546
H 66.4074990193 29.8180500291 58.4147451771
H 54.3261551286 29.8179684717 62.318959986
H 66.4076185562 21.9248507358 62.3187444587
H 54.3264669359 21.9249926119 58.4147109818
H 66.4075841091 23.9190988868 64.3134999371
H 54.3262257234 27.8233440413 64.3133354699
H 66.4076040888 27.8234993741 56.4202836754
H 54.3265455165 23.919660334 56.4203747192
H 58.4149249464 29.8182196913 66.4077014935
H 62.3190346202 29.8181204584 54.3265231048
H 62.3191136975 21.9249850816 66.4076750424
H 58.4149499625 21.9250449069 54.3262740687
H 64.3134793433 31.9122678535 58.4148126328
H 64.3133881237 19.8308568038 62.3189204336
H 56.4202795808 31.912137078 62.3189642496
H 56.4203346631 19.8309488927 58.4150715864
H 67.0387846672 23.2883662277 55.6896490816
H 53.6952799069 28.4548410495 55.6895576619
H 53.6949668232 23.2882445004 65.0442759897
H 67.0386496867 28.4546200927 65.0441298499
H 55.6896435071 32.5431824345 57.7837962456
H 55.6895554507 19.1996559214 62.9501529207
H 65.0441771569 19.1997103689 57.7837242572
H 65.0443031617 32.5434654451 62.950226282
H 57.7838660333 21.1942934565 67.0385323886
H 62.9502994261 21.1941916019 53.6950793127
H 57.783736196 30.5488535953 53.6952291745
H 62.9502742513 30.5489177808 67.0389314693
H 57.7836525033 32.543359251 55.6897261719
H 62.9502294591 19.1997872764 55.6896632764
H 57.7837738409 19.1996044301 65.0442231738
H 62.9501393295 32.5431790022 65.0441958638
H 67.0386404971 21.1942863194 57.7836267766
H 53.6951876248 21.1942764192 62.9500213828
H 53.6949917254 30.548806133 57.7837649549
H 67.0386496936 30.5488130045 62.9501640213
H 55.6897374519 23.288401965 67.0385494776
H 55.6896518585 28.4548688839 53.6949222827
H 65.0442307455 23.2884169118 53.6951683591
H 65.0443327691 28.4548737236 67.0388290042
H 58.1587690982 19.558736581 62.5754576974
H 62.2283318325 32.8670531944 60.9490314784
H 62.5753379156 19.5589091822 58.1585780903
H 58.1586201919 32.1843386306 58.1585350124
H 60.9490190083 24.0102519637 53.3712910313
H 62.57520229 28.0800501877 66.679846853
H 59.7848631231 27.7328302884 53.3713438989
H 58.1586040032 23.66315097 66.6795630455
H 53.3713175824 26.4538041003 58.5057364774
H 66.6794426738 28.079783214 62.5753439523
H 53.3711114517 25.28955347 62.2281079091
H 66.6798233168 23.6632300542 58.1585148878
H 54.0542357795 23.6634439464 62.5754177862
H 67.3623622024 27.7328082907 60.9490591851
H 54.054244217 28.080077922 58.1586560672
H 67.3628227505 24.0102967698 59.7847638005
H 58.1585665171 28.0798323596 54.054267191
H 62.2282448213 26.453757942 67.3627679339
H 62.5752745406 23.6632109782 54.0542935455
H 58.5057004573 25.2893937839 67.3625671707
H 60.949093715 18.8759448924 58.5057688203
H 62.5752720397 32.1841439868 62.5753250108
H 59.7849248664 18.8756744726 62.2281315833
H 59.7848525675 32.8673862371 58.5056115282
H 66.7825141977 28.1827212649 53.9514957978
H 53.6043767078 24.243430764 52.3251763696
H 53.9513801002 28.182638438 66.782298836
H 67.1293347059 24.243469523 68.4088338294
H 52.3251670283 32.6340898351 61.9951325212
H 53.9516227753 19.4559178187 58.0557363368
H 66.7826464496 19.4562489746 62.6780046014
H 68.408682605 32.6339701982 58.7388140096
H 62.678145936 19.455911137 66.7823742257
H 58.7387141213 17.8299140201 53.6045266213
H 61.9950856558 33.9134194759 53.6046127253
H 58.7388388566 33.913267565 67.1295515233
H 62.6780734129 32.2871882111 53.9516569051
H 58.055834183 19.4562372186 53.9513971858
H 61.9952152999 19.1090935782 68.40869166
H 58.0558370392 32.2869794863 66.7826343659
H 67.1296749512 17.8299614857 61.9950884189
H 53.604337114 17.8297420019 58.7387313345
H 53.9514142886 32.2869892347 62.6781316204
H 66.7823886241 32.2870451069 58.0558268355
H 52.3251423641 27.499635741 67.1294801488
H 53.9516733387 23.5604871404 53.9513899659
H 68.4087859946 27.4997596001 53.6044917741
H 66.7822353887 23.5604016332 66.7826123337
H 58.5055523479 18.8758244206 60.9491063507
H 60.9490416269 32.8670780276 62.2281007789
H 62.2283889879 18.8759651343 59.7848595425
H 58.5056908504 32.8672910333 59.7848108901
H 62.2282018676 25.2894587353 53.3713389281
H 60.9489826812 27.7328514582 67.3628475527
H 58.505667873 26.4536260074 53.3712314784
H 59.7848709121 24.0102047602 67.3625829282
H 53.371223779 27.7330193128 59.7848892775
H 67.3623907888 26.4535625738 62.2281659786
H 53.3713372585 24.0102255057 60.9490653736
H 67.3628188456 25.2894718573 58.5055954396
H 67.1296310938 27.4997392237 52.3252559816
H 52.325323765 24.2433282678 53.6044891835
H 53.6044189612 27.4997262672 68.4086056527
H 68.4085324776 24.2433620975 67.129653571
H 53.6044144975 33.9132341666 61.9951387235
H 52.3252707594 19.1090258672 58.7385805723
H 68.4088690561 19.1091657495 61.9949490299
H 67.1296241706 33.9132544878 58.7388147823
H 61.9951341046 17.8297362377 67.1296805361
H 58.7388328924 19.1089504154 52.3252089126
H 61.995123618 32.634270698 52.3253989339
H 58.7389096032 32.6341841352 68.408824864
C 40.9990575671 0.120408667 45.2394318807
C 45.2393990929 17.1270738705 45.2393677986
C 45.239438804 0.1205870669 40.9990837008
C 40.9990289463 17.1272719466 40.9990861397
C 45.23942424 6.5037147122 34.6159611436
C 45.2393972439 10.7440828615 51.6227806381
C 40.9991191035 10.7440424536 34.6159345476
C 40.9990800133 6.5036293982 51.6225080244
C 34.6158916595 10.744084024 40.9990494193
C 51.6224004781 10.7439046479 45.2393990204
C 34.6158797896 6.5036418027 45.2393429068
C 51.6227768333 6.5037243157 40.9989795592
C 49.6229890349 8.7443962347 36.6156198705
C 36.6156474358 8.5034051508 36.6155122552
C 36.6155254083 8.7443171747 49.622861909
C 49.6228042051 8.5033333865 49.622987148
C 36.615541121 15.1274365445 43.2397966452
C 36.6155785657 2.1201266605 42.9986633057
C 49.6229932537 2.1202508508 43.2396691122
C 49.6228957628 15.1275013062 42.9987629732
C 43.2398019368 2.1200940658 49.622922138
C 42.9987814214 2.1202272042 36.6155932332
C 43.2397223421 15.1276196875 36.6157183894
C 42.9987962544 15.1275011199 49.623019177
C 40.8876740834 15.439271166 46.3368446655
C 45.3505832622 1.808238102 46.3367395787
C 45.3505965877 15.4394464096 39.9016710437
C 40.8877053638 1.8084588208 39.9017592933
C 46.3368538758 6.3924696999 49.9348297621
C 46.336841523 10.8553389917 36.3039202295
C 39.9017302481 10.8553369806 49.9347682361
C 39.9017159636 6.392424028 36.3036826493
C 49.9346810145 11.8413819598 40.887688637
C 36.3035881664 11.8412816127 45.3506516045
C 49.9347750903 5.4061136308 45.350527421
C 36.303925973 5.4063049665 40.8876555456
C 49.9347321505 6.3921385648 46.3367510691
C 36.3036092224 10.8551171241 46.3367360361
C 49.9347548208 10.8552530153 39.9015663846
C 36.3039546973 6.3925003387 39.9016009973
C 40.8878245351 11.8415068193 49.9348310591
C 45.3507206815 11.841462917 36.3039418857
C 45.3507638007 5.4062893193 49.9348308694
C 40.8878287021 5.4062870047 36.3036874408
C 46.3367873963 15.4394276475 40.887746848
C 46.3367311722 1.8082698516 45.3506333564
C 39.901568413 15.4392922565 45.3506859032
C 39.9015965233 1.8084000303 40.887907224
C 49.5116935834 6.815534311 37.7129792392
C 36.7269447259 10.4322797136 37.7128732935
C 36.7267507065 6.8154520808 48.5254811118
C 49.5115642291 10.4321178888 48.5254759444
C 37.7129306766 15.0161270465 41.3109437213
C 37.7129211248 2.2313836531 44.9275527533
C 48.5254768275 2.2314484113 41.3108641646
C 48.5255248382 15.0163071574 44.9276334759
C 41.3109915837 3.2175430811 49.5115212617
C 44.9276905244 3.2175712397 36.7268247164
C 41.3108869695 14.0301515066 36.726944957
C 44.9276703619 14.0301271494 49.5117659686
C 41.3108381861 15.0162780915 37.713066209
C 44.9276561498 2.2314840002 37.7129901535
C 41.3109662985 2.2313534282 48.5254709322
C 44.9276049448 15.0161483405 48.5255345452
C 49.5115900903 3.217604683 41.3108021108
C 36.7268608779 3.2175694528 44.9274822136
C 36.7267505133 14.0300365886 41.3109478194
C 49.5115764371 14.0301096878 44.9276134376
C 37.7129830302 6.815513631 49.5115165116
C 37.7130312755 10.4322801551 36.7266946308
C 48.5255254177 6.8155718868 36.7268791777
C 48.5255186394 10.4322413375 49.5116919725
C 41.4489851363 1.4936083907 44.7895685385
C 44.789558352 15.753851173 44.7895015553
C 44.7896094121 1.4937931411 41.4489832287
C 41.4489491266 15.7540722091 41.4489166733
C 44.7895215247 6.9535679576 35.9891631888
C 44.7894989613 10.2942296506 50.2495689377
C 41.4489665019 10.2941249432 35.9891394525
C 41.4489661363 6.9534976387 50.2493018605
C 35.9891162647 10.2942927461 41.4489949606
C 50.2491604052 10.2940625755 44.7895377169
C 35.9890826351 6.9536278037 44.7895237842
C 50.2495635874 6.9535833771 41.4488696043
C 50.0728896736 10.1176002944 36.1657597122
C 36.1657957979 7.1301701935 36.16569048
C 36.1656599688 10.117527823 50.072726669
C 50.0726292643 7.1301371159 50.0729307852
C 36.1656779754 15.5773483321 44.6129926433
C 36.1657427681 1.6702510517 41.625441843
C 50.0729565463 1.6704497521 44.6128766732
C 50.072798892 15.5773469454 41.6255586376
C 44.613014503 1.6702515277 50.0728314557
C 41.6255471333 1.6703751455 36.165727497
C 44.6129436564 15.5775345176 36.1658922849
C 41.6255936987 15.5773913065 50.0729098016
C 40.9990575671 0.120408667 62.4871318773
C 45.2393990929 17.1270738705 62.4870677986
C 45.239438804 0.1205870669 58.2467837008
C 40.9990289463 17.1272719466 58.2467861397
C 45.23942424 6.5037147122 51.863661147
C 45.2393972439 10.7440828615 68.8704806416
C 40.9991191035 10.7440424536 51.8636345476
C 40.9990800133 6.5036293982 68.8702080244
C 34.6158916595 10.744084024 58.2467494193
C 51.6224004781 10.7439046479 62.4870990204
C 34.6158797896 6.5036418027 62.4870429068
C 51.6227768333 6.5037243157 58.2466795558
C 49.6229890349 8.7443962347 53.8633198705
C 36.6156474358 8.5034051508 53.8632122552
C 36.6155254083 8.7443171747 66.870561909
C 49.6228042051 8.5033333865 66.870687148
C 36.615541121 15.1274365445 60.4874966452
C 36.6155785657 2.1201266605 60.2463633057
C 49.6229932537 2.1202508508 60.4873691122
C 49.6228957628 15.1275013062 60.2464629732
C 43.2398019368 2.1200940658 66.8706221414
C 42.9987814214 2.1202272042 53.8632932366
C 43.2397223421 15.1276196875 53.8634183894
C 42.9987962544 15.1275011199 66.870719177
C 40.8876740834 15.439271166 63.5845446655
C 45.3505832622 1.808238102 63.5844395753
C 45.3505965877 15.4394464096 57.1493710437
C 40.8877053638 1.8084588208 57.1494592933
C 46.3368538758 6.3924696999 67.1825297621
C 46.336841523 10.8553389917 53.5516202295
C 39.9017302481 10.8553369806 67.1824682361
C 39.9017159636 6.392424028 53.5513826493
C 49.9346810145 11.8413819598 58.135388637
C 36.3035881664 11.8412816127 62.598351601
C 49.9347750903 5.4061136308 62.598227421
C 36.303925973 5.4063049665 58.1353555456
C 49.9347321505 6.3921385648 63.5844510657
C 36.3036092224 10.8551171241 63.5844360361
C 49.9347548208 10.8552530153 57.1492663812
C 36.3039546973 6.3925003387 57.1493009939
C 40.8878245351 11.8415068193 67.1825310591
C 45.3507206815 11.841462917 53.5516418857
C 45.3507638007 5.4062893193 67.1825308694
C 40.8878287021 5.4062870047 53.5513874408
C 46.3367873963 15.4394276475 58.135446848
C 46.3367311722 1.8082698516 62.5983333564
C 39.901568413 15.4392922565 62.5983859032
C 39.9015965233 1.8084000303 58.135607224
C 49.5116935834 6.815534311 54.9606792357
C 36.7269447259 10.4322797136 54.9605732935
C 36.7267507065 6.8154520808 65.7731811118
C 49.5115642291 10.4321178888 65.7731759444
C 37.7129306766 15.0161270465 58.5586437213
C 37.7129211248 2.2313836531 62.1752527533
C 48.5254768275 2.2314484113 58.5585641646
C 48.5255248382 15.0163071574 62.1753334759
C 41.3109915837 3.2175430811 66.7592212617
C 44.9276905244 3.2175712397 53.9745247164
C 41.3108869695 14.0301515066 53.974644957
C 44.9276703619 14.0301271494 66.7594659686
C 41.3108381861 15.0162780915 54.9607662124
C 44.9276561498 2.2314840002 54.9606901535
C 41.3109662985 2.2313534282 65.7731709288
C 44.9276049448 15.0161483405 65.7732345452
C 49.5115900903 3.217604683 58.5585021108
C 36.7268608779 3.2175694528 62.1751822136
C 36.7267505133 14.0300365886 58.5586478194
C 49.5115764371 14.0301096878 62.1753134341
C 37.7129830302 6.815513631 66.7592165116
C 37.7130312755 10.4322801551 53.9743946308
C 48.5255254177 6.8155718868 53.9745791777
C 48.5255186394 10.4322413375 66.7593919725
C 41.4489851363 1.4936083907 62.037268542
C 44.789558352 15.753851173 62.0372015553
C 44.7896094121 1.4937931411 58.6966832253
C 41.4489491266 15.7540722091 58.6966166733
C 44.7895215247 6.9535679576 53.2368631888
C 44.7894989613 10.2942296506 67.4972689377
C 41.4489665019 10.2941249432 53.2368394525
C 41.4489661363 6.9534976387 67.4970018605
C 35.9891162647 10.2942927461 58.6966949606
C 50.2491604052 10.2940625755 62.0372377169
C 35.9890826351 6.9536278037 62.0372237842
C 50.2495635874 6.9535833771 58.6965696043
C 50.0728896736 10.1176002944 53.4134597088
C 36.1657957979 7.1301701935 53.41339048
C 36.1656599688 10.117527823 67.320426669
C 50.0726292643 7.1301371159 67.3206307886
C 36.1656779754 15.5773483321 61.8606926433
C 36.1657427681 1.6702510517 58.873141843
C 50.0729565463 1.6704497521 61.8605766732
C 50.072798892 15.5773469454 58.8732586376
C 44.613014503 1.6702515277 67.3205314591
C 41.6255471333 1.6703751455 53.4134274935
C 44.6129436564 15.5775345176 53.4135922884
C 41.6255936987 15.5773913065 67.3206098016
C 40.9990575671 17.368108667 45.2394318807
C 45.2393990929 34.3747738705 45.2393677986
C 45.239438804 17.3682870669 40.9990837008
C 40.9990289463 34.3749719466 40.9990861397
C 45.23942424 23.7514147122 34.6159611436
C 45.2393972439 27.9917828615 51.6227806381
C 40.9991191035 27.9917424536 34.6159345476
C 40.9990800133 23.7513293982 51.6225080244
C 34.6158916595 27.991784024 40.9990494193
C 51.6224004781 27.9916046479 45.2393990204
C 34.6158797896 23.7513418027 45.2393429068
C 51.6227768333 23.7514243157 40.9989795592
C 49.6229890349 25.9920962347 36.6156198705
C 36.6156474358 25.7511051508 36.6155122552
C 36.6155254083 25.9920171747 49.622861909
C 49.6228042051 25.75103339 49.622987148
C 36.615541121 32.3751365445 43.2397966452
C 36.6155785657 19.3678266605 42.9986633057
C 49.6229932537 19.3679508508 43.2396691122
C 49.6228957628 32.3752013097 42.9987629732
C 43.2398019368 19.3677940658 49.622922138
C 42.9987814214 19.3679272042 36.6155932332
C 43.2397223421 32.3753196875 36.6157183894
C 42.9987962544 32.3752011199 49.623019177
C 40.8876740834 32.686971166 46.3368446655
C 45.3505832622 19.0559381054 46.3367395787
C 45.3505965877 32.6871464096 39.9016710437
C 40.8877053638 19.0561588243 39.9017592933
C 46.3368538758 23.6401696999 49.9348297621
C 46.336841523 28.1030389917 36.3039202295
C 39.9017302481 28.1030369806 49.9347682361
C 39.9017159636 23.6401240245 36.3036826493
C 49.9346810145 29.0890819598 40.887688637
C 36.3035881664 29.0889816092 45.3506516045
C 49.9347750903 22.6538136308 45.350527421
C 36.303925973 22.6540049665 40.8876555456
C 49.9347321505 23.6398385648 46.3367510691
C 36.3036092224 28.1028171241 46.3367360361
C 49.9347548208 28.1029530153 39.9015663846
C 36.3039546973 23.6402003387 39.9016009973
C 40.8878245351 29.0892068193 49.9348310591
C 45.3507206815 29.089162917 36.3039418857
C 45.3507638007 22.6539893193 49.9348308694
C 40.8878287021 22.6539870047 36.3036874408
C 46.3367873963 32.6871276475 40.887746848
C 46.3367311722 19.0559698516 45.3506333564
C 39.901568413 32.6869922565 45.3506859032
C 39.9015965233 19.0561000303 40.887907224
C 49.5116935834 24.063234311 37.7129792392
C 36.7269447259 27.6799797136 37.7128732935
C 36.7267507065 24.0631520808 48.5254811118
C 49.5115642291 27.6798178888 48.5254759444
C 37.7129306766 32.2638270465 41.3109437213
C 37.7129211248 19.4790836531 44.9275527533
C 48.5254768275 19.4791484113 41.3108641646
C 48.5255248382 32.2640071574 44.9276334759
C 41.3109915837 20.4652430811 49.5115212617
C 44.9276905244 20.4652712397 36.7268247164
C 41.3108869695 31.2778515066 36.726944957
C 44.9276703619 31.2778271528 49.5117659686
C 41.3108381861 32.2639780915 37.713066209
C 44.9276561498 19.4791840002 37.7129901535
C 41.3109662985 19.4790534282 48.5254709322
C 44.9276049448 32.2638483371 48.5255345452
C 49.5115900903 20.465304683 41.3108021108
C 36.7268608779 20.4652694528 44.9274822136
C 36.7267505133 31.2777365886 41.3109478194
C 49.5115764371 31.2778096878 44.9276134376
C 37.7129830302 24.063213631 49.5115165116
C 37.7130312755 27.6799801551 36.7266946308
C 48.5255254177 24.0632718868 36.7268791777
C 48.5255186394 27.679941334 49.5116919725
C 41.4489851363 18.7413083907 44.7895685385
C 44.789558352 33.0015511695 44.7895015553
C 44.7896094121 18.7414931411 41.4489832287
C 41.4489491266 33.0017722091 41.4489166733
C 44.7895215247 24.2012679576 35.9891631888
C 44.7894989613 27.5419296506 50.2495689377
C 41.4489665019 27.5418249432 35.9891394525
C 41.4489661363 24.2011976387 50.2493018605
C 35.9891162647 27.5419927461 41.4489949606
C 50.2491604052 27.5417625755 44.7895377169
C 35.9890826351 24.2013278037 44.7895237842
C 50.2495635874 24.2012833771 41.4488696043
C 50.0728896736 27.3653002944 36.1657597122
C 36.1657957979 24.3778701935 36.16569048
C 36.1656599688 27.3652278264 50.072726669
C 50.0726292643 24.3778371159 50.0729307852
C 36.1656779754 32.8250483321 44.6129926433
C 36.1657427681 18.9179510517 41.625441843
C 50.0729565463 18.9181497556 44.6128766732
C 50.072798892 32.8250469454 41.6255586376
C 44.613014503 18.9179515277 50.0728314557
C 41.6255471333 18.9180751455 36.165727497
C 44.6129436564 32.825234521 36.1658922849
C 41.6255936987 32.8250913065 50.0729098016
C 40.9990575671 17.368108667 62.4871318773
C 45.2393990929 34.3747738705 62.4870677986
C 45.239438804 17.3682870669 58.2467837008
C 40.9990289463 34.3749719466 58.2467861397
C 45.23942424 23.7514147122 51.863661147
C 45.2393972439 27.9917828615 68.8704806416
C 40.9991191035 27.9917424536 51.8636345476
C 40.9990800133 23.7513293982 68.8702080244
C 34.6158916595 27.991784024 58.2467494193
C 51.6224004781 27.9916046479 62.4870990204
C 34.6158797896 23.7513418027 62.4870429068
C 51.6227768333 23.7514243157 58.2466795558
C 49.6229890349 25.9920962347 53.8633198705
C 36.6156474358 25.7511051508 53.8632122552
C 36.6155254083 25.9920171747 66.870561909
C 49.6228042051 25.75103339 66.870687148
C 36.615541121 32.3751365445 60.4874966452
C 36.6155785657 19.3678266605 60.2463633057
C 49.6229932537 19.3679508508 60.4873691122
C 49.6228957628 32.3752013097 60.2464629732
C 43.2398019368 19.3677940658 66.8706221414
C 42.9987814214 19.3679272042 53.8632932366
C 43.2397223421 32.3753196875 53.8634183894
C 42.9987962544 32.3752011199 66.870719177
C 40.8876740834 32.686971166 63.5845446655
C 45.3505832622 19.0559381054 63.5844395753
C 45.3505965877 32.6871464096 57.1493710437
C 40.8877053638 19.0561588243 57.1494592933
C 46.3368538758 23.6401696999 67.1825297621
C 46.336841523 28.1030389917 53.5516202295
C 39.9017302481 28.1030369806 67.1824682361
C 39.9017159636 23.6401240245 53.5513826493
C 49.9346810145 29.0890819598 58.135388637
C 36.3035881664 29.0889816092 62.598351601
C 49.9347750903 22.6538136308 62.598227421
C 36.303925973 22.6540049665 58.1353555456
C 49.9347321505 23.6398385648 63.5844510657
C 36.3036092224 28.1028171241 63.5844360361
C 49.9347548208 28.1029530153 57.1492663812
C 36.3039546973 23.6402003387 57.1493009939
C 40.8878245351 29.0892068193 67.1825310591
C 45.3507206815 29.089162917 53.5516418857
C 45.3507638007 22.6539893193 67.1825308694
C 40.8878287021 22.6539870047 53.5513874408
C 46.3367873963 32.6871276475 58.135446848
C 46.3367311722 19.0559698516 62.5983333564
C 39.901568413 32.6869922565 62.5983859032
C 39.9015965233 19.0561000303 58.135607224
C 49.5116935834 24.063234311 54.9606792357
C 36.7269447259 27.6799797136 54.9605732935
C 36.7267507065 24.0631520808 65.7731811118
C 49.5115642291 27.6798178888 65.7731759444
C 37.7129306766 32.2638270465 58.5586437213
C 37.7129211248 19.4790836531 62.1752527533
C 48.5254768275 19.4791484113 58.5585641646
C 48.5255248382 32.2640071574 62.1753334759
C 41.3109915837 20.4652430811 66.7592212617
C 44.9276905244 20.4652712397 53.9745247164
C 41.3108869695 31.2778515066 53.974644957
C 44.9276703619 31.2778271528 66.7594659686
C 41.3108381861 32.2639780915 54.9607662124
C 44.9276561498 19.4791840002 54.9606901535
C 41.3109662985 19.4790534282 65.7731709288
C 44.9276049448 32.2638483371 65.7732345452
C 49.5115900903 20.465304683 58.5585021108
C 36.7268608779 20.4652694528 62.1751822136
C 36.7267505133 31.2777365886 58.5586478194
C 49.5115764371 31.2778096878 62.1753134341
C 37.7129830302 24.063213631 66.7592165116
C 37.7130312755 27.6799801551 53.9743946308
C 48.5255254177 24.0632718868 53.9745791777
C 48.5255186394 27.679941334 66.7593919725
C 41.4489851363 18.7413083907 62.037268542
C 44.789558352 33.0015511695 62.0372015553
C 44.7896094121 18.7414931411 58.6966832253
C 41.4489491266 33.0017722091 58.6966166733
C 44.7895215247 24.2012679576 53.2368631888
C 44.7894989613 27.5419296506 67.4972689377
C 41.4489665019 27.5418249432 53.2368394525
C 41.4489661363 24.2011976387 67.4970018605
C 35.9891162647 27.5419927461 58.6966949606
C 50.2491604052 27.5417625755 62.0372377169
C 35.9890826351 24.2013278037 62.0372237842
C 50.2495635874 24.2012833771 58.6965696043
C 50.0728896736 27.3653002944 53.4134597088
C 36.1657957979 24.3778701935 53.41339048
C 36.1656599688 27.3652278264 67.320426669
C 50.0726292643 24.3778371159 67.3206307886
C 36.1656779754 32.8250483321 61.8606926433
C 36.1657427681 18.9179510517 58.873141843
C 50.0729565463 18.9181497556 61.8605766732
C 50.072798892 32.8250469454 58.8732586376
C 44.613014503 18.9179515277 67.3205314591
C 41.6255471333 18.9180751455 53.4134274935
C 44.6129436564 32.825234521 53.4135922884
C 41.6255936987 32.8250913065 67.3206098016
C 58.2467575671 0.120408667 45.2394318807
C 62.4870990929 17.1270738705 45.2393677986
C 62.487138804 0.1205870669 40.9990837008
C 58.2467289463 17.1272719466 40.9990861397
C 62.48712424 6.5037147122 34.6159611436
C 62.4870972405 10.7440828615 51.6227806381
C 58.2468191035 10.7440424536 34.6159345476
C 58.2467800133 6.5036293982 51.6225080244
C 51.8635916595 10.744084024 40.9990494193
C 68.8701004781 10.7439046479 45.2393990204
C 51.8635797862 6.5036418027 45.2393429068
C 68.8704768333 6.5037243157 40.9989795592
C 66.8706890349 8.7443962347 36.6156198705
C 53.8633474358 8.5034051508 36.6155122552
C 53.8632254083 8.7443171747 49.622861909
C 66.8705042051 8.5033333865 49.622987148
C 53.863241121 15.1274365445 43.2397966452
C 53.8632785657 2.1201266605 42.9986633057
C 66.8706932537 2.1202508508 43.2396691122
C 66.8705957628 15.1275013062 42.9987629732
C 60.4875019368 2.1200940658 49.622922138
C 60.2464814214 2.1202272042 36.6155932332
C 60.4874223421 15.1276196875 36.6157183894
C 60.2464962544 15.1275011199 49.623019177
C 58.1353740834 15.439271166 46.3368446655
C 62.5982832622 1.808238102 46.3367395787
C 62.5982965912 15.4394464096 39.9016710437
C 58.1354053638 1.8084588208 39.9017592933
C 63.5845538792 6.3924696999 49.9348297621
C 63.584541523 10.8553389917 36.3039202295
C 57.1494302481 10.8553369806 49.9347682361
C 57.1494159636 6.392424028 36.3036826493
C 67.1823810179 11.8413819598 40.887688637
C 53.5512881664 11.8412816127 45.3506516045
C 67.1824750869 5.4061136308 45.350527421
C 53.551625973 5.4063049665 40.8876555456
C 67.1824321505 6.3921385648 46.3367510691
C 53.5513092224 10.8551171241 46.3367360361
C 67.1824548208 10.8552530153 39.9015663846
C 53.5516546973 6.3925003387 39.9016009973
C 58.1355245351 11.8415068193 49.9348310591
C 62.5984206815 11.841462917 36.3039418857
C 62.5984638042 5.4062893193 49.9348308694
C 58.1355286987 5.4062870047 36.3036874408
C 63.5844873928 15.4394276475 40.887746848
C 63.5844311757 1.8082698516 45.3506333564
C 57.149268413 15.4392922565 45.3506859032
C 57.1492965233 1.8084000303 40.887907224
C 66.7593935834 6.815534311 37.7129792392
C 53.9746447259 10.4322797136 37.7128732935
C 53.9744507065 6.8154520808 48.5254811118
C 66.7592642291 10.4321178888 48.5254759444
C 54.9606306766 15.0161270465 41.3109437213
C 54.9606211248 2.2313836531 44.9275527533
C 65.7731768275 2.2314484113 41.3108641646
C 65.7732248416 15.0163071574 44.9276334759
C 58.5586915837 3.2175430811 49.5115212617
C 62.1753905244 3.2175712397 36.7268247164
C 58.558586966 14.0301515066 36.726944957
C 62.1753703619 14.0301271494 49.5117659686
C 58.5585381861 15.0162780915 37.713066209
C 62.1753561498 2.2314840002 37.7129901535
C 58.5586662985 2.2313534282 48.5254709322
C 62.1753049448 15.0161483405 48.5255345452
C 66.7592900903 3.217604683 41.3108021108
C 53.9745608779 3.2175694528 44.9274822136
C 53.9744505133 14.0300365886 41.3109478194
C 66.7592764371 14.0301096878 44.9276134376
C 54.9606830302 6.815513631 49.5115165116
C 54.9607312755 10.4322801551 36.7266946308
C 65.7732254177 6.8155718868 36.7268791777
C 65.7732186428 10.4322413375 49.5116919725
C 58.6966851363 1.4936083907 44.7895685385
C 62.037258352 15.753851173 44.7895015553
C 62.0373094121 1.4937931411 41.4489832287
C 58.6966491266 15.7540722091 41.4489166733
C 62.0372215247 6.9535679576 35.9891631888
C 62.0371989613 10.2942296506 50.2495689377
C 58.6966665019 10.2941249432 35.9891394525
C 58.6966661363 6.9534976387 50.2493018605
C 53.2368162647 10.2942927461 41.4489949606
C 67.4968604052 10.2940625755 44.7895377169
C 53.2367826351 6.9536278037 44.7895237842
C 67.4972635874 6.9535833771 41.4488696043
C 67.3205896736 10.1176002944 36.1657597122
C 53.4134957979 7.1301701935 36.16569048
C 53.4133599688 10.117527823 50.072726669
C 67.3203292643 7.1301371159 50.0729307852
C 53.4133779754 15.5773483321 44.6129926433
C 53.4134427681 1.6702510517 41.625441843
C 67.3206565463 1.6704497521 44.6128766732
C 67.320498892 15.5773469454 41.6255586376
C 61.860714503 1.6702515277 50.0728314557
C 58.8732471333 1.6703751455 36.165727497
C 61.8606436564 15.5775345176 36.1658922849
C 58.8732936952 15.5773913065 50.0729098016
C 58.2467575671 0.120408667 62.4871318773
C 62.4870990929 17.1270738705 62.4870677986
C 62.487138804 0.1205870669 58.2467837008
C 58.2467289463 17.1272719466 58.2467861397
C 62.48712424 6.5037147122 51.863661147
C 62.4870972405 10.7440828615 68.8704806416
C 58.2468191035 10.7440424536 51.8636345476
C 58.2467800133 6.5036293982 68.8702080244
C 51.8635916595 10.744084024 58.2467494193
C 68.8701004781 10.7439046479 62.4870990204
C 51.8635797862 6.5036418027 62.4870429068
C 68.8704768333 6.5037243157 58.2466795558
C 66.8706890349 8.7443962347 53.8633198705
C 53.8633474358 8.5034051508 53.8632122552
C 53.8632254083 8.7443171747 66.870561909
C 66.8705042051 8.5033333865 66.870687148
C 53.863241121 15.1274365445 60.4874966452
C 53.8632785657 2.1201266605 60.2463633057
C 66.8706932537 2.1202508508 60.4873691122
C 66.8705957628 15.1275013062 60.2464629732
C 60.4875019368 2.1200940658 66.8706221414
C 60.2464814214 2.1202272042 53.8632932366
C 60.4874223421 15.1276196875 53.8634183894
C 60.2464962544 15.1275011199 66.870719177
C 58.1353740834 15.439271166 63.5845446655
C 62.5982832622 1.808238102 63.5844395753
C 62.5982965912 15.4394464096 57.1493710437
C 58.1354053638 1.8084588208 57.1494592933
C 63.5845538792 6.3924696999 67.1825297621
C 63.584541523 10.8553389917 53.5516202295
C 57.1494302481 10.8553369806 67.1824682361
C 57.1494159636 6.392424028 53.5513826493
C 67.1823810179 11.8413819598 58.135388637
C 53.5512881664 11.8412816127 62.598351601
C 67.1824750869 5.4061136308 62.598227421
C 53.551625973 5.4063049665 58.1353555456
C 67.1824321505 6.3921385648 63.5844510657
C 53.5513092224 10.8551171241 63.5844360361
C 67.1824548208 10.8552530153 57.1492663812
C 53.5516546973 6.3925003387 57.1493009939
C 58.1355245351 11.8415068193 67.1825310591
C 62.5984206815 11.841462917 53.5516418857
C 62.5984638042 5.4062893193 67.1825308694
C 58.1355286987 5.4062870047 53.5513874408
C 63.5844873928 15.4394276475 58.135446848
C 63.5844311757 1.8082698516 62.5983333564
C 57.149268413 15.4392922565 62.5983859032
C 57.1492965233 1.8084000303 58.135607224
C 66.7593935834 6.815534311 54.9606792357
C 53.9746447259 10.4322797136 54.9605732935
C 53.9744507065 6.8154520808 65.7731811118
C 66.7592642291 10.4321178888 65.7731759444
C 54.9606306766 15.0161270465 58.5586437213
C 54.9606211248 2.2313836531 62.1752527533
C 65.7731768275 2.2314484113 58.5585641646
C 65.7732248416 15.0163071574 62.1753334759
C 58.5586915837 3.2175430811 66.7592212617
C 62.1753905244 3.2175712397 53.9745247164
C 58.558586966 14.0301515066 53.974644957
C 62.1753703619 14.0301271494 66.7594659686
C 58.5585381861 15.0162780915 54.9607662124
C 62.1753561498 2.2314840002 54.9606901535
C 58.5586662985 2.2313534282 65.7731709288
C 62.1753049448 15.0161483405 65.7732345452
C 66.7592900903 3.217604683 58.5585021108
C 53.9745608779 3.2175694528 62.1751822136
C 53.9744505133 14.0300365886 58.5586478194
C 66.7592764371 14.0301096878 62.1753134341
C 54.9606830302 6.815513631 66.7592165116
C 54.9607312755 10.4322801551 53.9743946308
C 65.7732254177 6.8155718868 53.9745791777
C 65.7732186428 10.4322413375 66.7593919725
C 58.6966851363 1.4936083907 62.037268542
C 62.037258352 15.753851173 62.0372015553
C 62.0373094121 1.4937931411 58.6966832253
C 58.6966491266 15.7540722091 58.6966166733
C 62.0372215247 6.9535679576 53.2368631888
C 62.0371989613 10.2942296506 67.4972689377
C 58.6966665019 10.2941249432 53.2368394525
C 58.6966661363 6.9534976387 67.4970018605
C 53.2368162647 10.2942927461 58.6966949606
C 67.4968604052 10.2940625755 62.0372377169
C 53.2367826351 6.9536278037 62.0372237842
C 67.4972635874 6.9535833771 58.6965696043
C 67.3205896736 10.1176002944 53.4134597088
C 53.4134957979 7.1301701935 53.41339048
C 53.4133599688 10.117527823 67.320426669
C 67.3203292643 7.1301371159 67.3206307886
C 53.4133779754 15.5773483321 61.8606926433
C 53.4134427681 1.6702510517 58.873141843
C 67.3206565463 1.6704497521 61.8605766732
C 67.320498892 15.5773469454 58.8732586376
C 61.860714503 1.6702515277 67.3205314591
C 58.8732471333 1.6703751455 53.4134274935
C 61.8606436564 15.5775345176 53.4135922884
C 58.8732936952 15.5773913065 67.3206098016
C 58.2467575671 17.368108667 45.2394318807
C 62.4870990929 34.3747738705 45.2393677986
C 62.487138804 17.3682870669 40.9990837008
C 58.2467289463 34.3749719466 40.9990861397
C 62.48712424 23.7514147122 34.6159611436
C 62.4870972405 27.9917828615 51.6227806381
C 58.2468191035 27.9917424536 34.6159345476
C 58.2467800133 23.7513293982 51.6225080244
C 51.8635916595 27.991784024 40.9990494193
C 68.8701004781 27.9916046479 45.2393990204
C 51.8635797862 23.7513418027 45.2393429068
C 68.8704768333 23.7514243157 40.9989795592
C 66.8706890349 25.9920962347 36.6156198705
C 53.8633474358 25.7511051508 36.6155122552
C 53.8632254083 25.9920171747 49.622861909
C 66.8705042051 25.75103339 49.622987148
C 53.863241121 32.3751365445 43.2397966452
C 53.8632785657 19.3678266605 42.9986633057
C 66.8706932537 19.3679508508 43.2396691122
C 66.8705957628 32.3752013097 42.9987629732
C 60.4875019368 19.3677940658 49.622922138
C 60.2464814214 19.3679272042 36.6155932332
C 60.4874223421 32.3753196875 36.6157183894
C 60.2464962544 32.3752011199 49.623019177
C 58.1353740834 32.686971166 46.3368446655
C 62.5982832622 19.0559381054 46.3367395787
C 62.5982965912 32.6871464096 39.9016710437
C 58.1354053638 19.0561588243 39.9017592933
C 63.5845538792 23.6401696999 49.9348297621
C 63.584541523 28.1030389917 36.3039202295
C 57.1494302481 28.1030369806 49.9347682361
C 57.1494159636 23.6401240245 36.3036826493
C 67.1823810179 29.0890819598 40.887688637
C 53.5512881664 29.0889816092 45.3506516045
C 67.1824750869 22.6538136308 45.350527421
C 53.551625973 22.6540049665 40.8876555456
C 67.1824321505 23.6398385648 46.3367510691
C 53.5513092224 28.1028171241 46.3367360361
C 67.1824548208 28.1029530153 39.9015663846
C 53.5516546973 23.6402003387 39.9016009973
C 58.1355245351 29.0892068193 49.9348310591
C 62.5984206815 29.089162917 36.3039418857
C 62.5984638042 22.6539893193 49.9348308694
C 58.1355286987 22.6539870047 36.3036874408
C 63.5844873928 32.6871276475 40.887746848
C 63.5844311757 19.0559698516 45.3506333564
C 57.149268413 32.6869922565 45.3506859032
C 57.1492965233 19.0561000303 40.887907224
C 66.7593935834 24.063234311 37.7129792392
C 53.9746447259 27.6799797136 37.7128732935
C 53.9744507065 24.0631520808 48.5254811118
C 66.7592642291 27.6798178888 48.5254759444
C 54.9606306766 32.2638270465 41.3109437213
C 54.9606211248 19.4790836531 44.9275527533
C 65.7731768275 19.4791484113 41.3108641646
C 65.7732248416 32.2640071574 44.9276334759
C 58.5586915837 20.4652430811 49.5115212617
C 62.1753905244 20.4652712397 36.7268247164
C 58.558586966 31.2778515066 36.726944957
C 62.1753703619 31.2778271528 49.5117659686
C 58.5585381861 32.2639780915 37.713066209
C 62.1753561498 19.4791840002 37.7129901535
C 58.5586662985 19.4790534282 48.5254709322
C 62.1753049448 32.2638483371 48.5255345452
C 66.7592900903 20.465304683 41.3108021108
C 53.9745608779 20.4652694528 44.9274822136
C 53.9744505133 31.2777365886 41.3109478194
C 66.7592764371 31.2778096878 44.9276134376
C 54.9606830302 24.063213631 49.5115165116
C 54.9607312755 27.6799801551 36.7266946308
C 65.7732254177 24.0632718868 36.7268791777
C 65.7732186428 27.679941334 49.5116919725
C 58.6966851363 18.7413083907 44.7895685385
C 62.037258352 33.0015511695 44.7895015553
C 62.0373094121 18.7414931411 41.4489832287
C 58.6966491266 33.0017722091 41.4489166733
C 62.0372215247 24.2012679576 35.9891631888
C 62.0371989613 27.5419296506 50.2495689377
C 58.6966665019 27.5418249432 35.9891394525
C 58.6966661363 24.2011976387 50.2493018605
C 53.2368162647 27.5419927461 41.4489949606
C 67.4968604052 27.5417625755 44.7895377169
C 53.2367826351 24.2013278037 44.7895237842
C 67.4972635874 24.2012833771 41.4488696043
C 67.3205896736 27.3653002944 36.1657597122
C 53.4134957979 24.3778701935 36.16569048
C 53.4133599688 27.3652278264 50.072726669
C 67.3203292643 24.3778371159 50.0729307852
C 53.4133779754 32.8250483321 44.6129926433
C 53.4134427681 18.9179510517 41.625441843
C 67.3206565463 18.9181497556 44.6128766732
C 67.320498892 32.8250469454 41.6255586376
C 61.860714503 18.9179515277 50.0728314557
C 58.8732471333 18.9180751455 36.165727497
C 61.8606436564 32.825234521 36.1658922849
C 58.8732936952 32.8250913065 50.0729098016
C 58.2467575671 17.368108667 62.4871318773
C 62.4870990929 34.3747738705 62.4870677986
C 62.487138804 17.3682870669 58.2467837008
C 58.2467289463 34.3749719466 58.2467861397
C 62.48712424 23.7514147122 51.863661147
C 62.4870972405 27.9917828615 68.8704806416
C 58.2468191035 27.9917424536 51.8636345476
C 58.2467800133 23.7513293982 68.8702080244
C 51.8635916595 27.991784024 58.2467494193
C 68.8701004781 27.9916046479 62.4870990204
C 51.8635797862 23.7513418027 62.4870429068
C 68.8704768333 23.7514243157 58.2466795558
C 66.8706890349 25.9920962347 53.8633198705
C 53.8633474358 25.7511051508 53.8632122552
C 53.8632254083 25.9920171747 66.870561909
C 66.8705042051 25.75103339 66.870687148
C 53.863241121 32.3751365445 60.4874966452
C 53.8632785657 19.3678266605 60.2463633057
C 66.8706932537 19.3679508508 60.4873691122
C 66.8705957628 32.3752013097 60.2464629732
C 60.4875019368 19.3677940658 66.8706221414
C 60.2464814214 19.3679272042 53.8632932366
C 60.4874223421 32.3753196875 53.8634183894
C 60.2464962544 32.3752011199 66.870719177
C 58.1353740834 32.686971166 63.5845446655
C 62.5982832622 19.0559381054 63.5844395753
C 62.5982965912 32.6871464096 57.1493710437
C 58.1354053638 19.0561588243 57.1494592933
C 63.5845538792 23.6401696999 67.1825297621
C 63.584541523 28.1030389917 53.5516202295
C 57.1494302481 28.1030369806 67.1824682361
C 57.1494159636 23.6401240245 53.5513826493
C 67.1823810179 29.0890819598 58.135388637
C 53.5512881664 29.0889816092 62.598351601
C 67.1824750869 22.6538136308 62.598227421
C 53.551625973 22.6540049665 58.1353555456
C 67.1824321505 23.6398385648 63.5844510657
C 53.5513092224 28.1028171241 63.5844360361
C 67.1824548208 28.1029530153 57.1492663812
C 53.5516546973 23.6402003387 57.1493009939
C 58.1355245351 29.0892068193 67.1825310591
C 62.5984206815 29.089162917 53.5516418857
C 62.5984638042 22.6539893193 67.1825308694
C 58.1355286987 22.6539870047 53.5513874408
C 63.5844873928 32.6871276475 58.135446848
C 63.5844311757 19.0559698516 62.5983333564
C 57.149268413 32.6869922565 62.5983859032
C 57.1492965233 19.0561000303 58.135607224
C 66.7593935834 24.063234311 54.9606792357
C 53.9746447259 27.6799797136 54.9605732935
C 53.9744507065 24.0631520808 65.7731811118
C 66.7592642291 27.6798178888 65.7731759444
C 54.9606306766 32.2638270465 58.5586437213
C 54.9606211248 19.4790836531 62.1752527533
C 65.7731768275 19.4791484113 58.5585641646
C 65.7732248416 32.2640071574 62.1753334759
C 58.5586915837 20.4652430811 66.7592212617
C 62.1753905244 20.4652712397 53.9745247164
C 58.558586966 31.2778515066 53.974644957
C 62.1753703619 31.2778271528 66.7594659686
C 58.5585381861 32.2639780915 54.9607662124
C 62.1753561498 19.4791840002 54.9606901535
C 58.5586662985 19.4790534282 65.7731709288
C 62.1753049448 32.2638483371 65.7732345452
C 66.7592900903 20.465304683 58.5585021108
C 53.9745608779 20.4652694528 62.1751822136
C 53.9744505133 31.2777365886 58.5586478194
C 66.7592764371 31.2778096878 62.1753134341
C 54.9606830302 24.063213631 66.7592165116
C 54.9607312755 27.6799801551 53.9743946308
C 65.7732254177 24.0632718868 53.9745791777
C 65.7732186428 27.679941334 66.7593919725
C 58.6966851363 18.7413083907 62.037268542
C 62.037258352 33.0015511695 62.0372015553
C 62.0373094121 18.7414931411 58.6966832253
C 58.6966491266 33.0017722091 58.6966166733
C 62.0372215247 24.2012679576 53.2368631888
C 62.0371989613 27.5419296506 67.4972689377
C 58.6966665019 27.5418249432 53.2368394525
C 58.6966661363 24.2011976387 67.4970018605
C 53.2368162647 27.5419927461 58.6966949606
C 67.4968604052 27.5417625755 62.0372377169
C 53.2367826351 24.2013278037 62.0372237842
C 67.4972635874 24.2012833771 58.6965696043
C 67.3205896736 27.3653002944 53.4134597088
C 53.4134957979 24.3778701935 53.41339048
C 53.4133599688 27.3652278264 67.320426669
C 67.3203292643 24.3778371159 67.3206307886
C 53.4133779754 32.8250483321 61.8606926433
C 53.4134427681 18.9179510517 58.873141843
C 67.3206565463 18.9181497556 61.8605766732
C 67.320498892 32.8250469454 58.8732586376
C 61.860714503 18.9179515277 67.3205314591
C 58.8732471333 18.9180751455 53.4134274935
C 61.8606436564 32.825234521 53.4135922884
C 58.8732936952 32.8250913065 67.3206098016
Zn 43.1192463504 -1.5904304495e-04 47.4311967838
Zn 43.1191767214 1.5681609715e-04 38.80739931
Zn 47.4311525538 8.6239741076 34.4955267396
Zn 38.8073773778 8.6238438564 34.4952982146
Zn 34.4952634531 12.9357270583 43.1192764476
Zn 34.4955125193 4.3119706616 43.1190518308
Zn 34.4952252249 8.6237034739 47.4311706501
Zn 34.4955561683 8.6239182491 38.8073119573
Zn 43.1193027538 12.935860828 34.4955859293
Zn 43.119289956 4.3119035025 34.4953725408
Zn 47.4312452395 2.609909377e-05 43.1192515661
Zn 38.807281215 -6.9592510106e-05 43.1192636981
Zn 43.1192463504 -1.5904304495e-04 64.6788967838
Zn 43.1191767214 1.5681609715e-04 56.05509931
Zn 47.4311525538 8.6239741076 51.7432267395
Zn 38.8073773778 8.6238438564 51.7429982144
Zn 34.4952634531 12.9357270583 60.3669764442
Zn 34.4955125193 4.3119706616 60.3667518308
Zn 34.4952252249 8.6237034739 64.6788706501
Zn 34.4955561683 8.6239182491 56.0550119573
Zn 43.1193027538 12.935860828 51.7432859302
Zn 43.119289956 4.3119035025 51.7430725417
Zn 47.4312452395 2.609909377e-05 60.3669515661
Zn 38.807281215 -6.9592510106e-05 60.3669636981
Zn 43.1192463504 17.2475409555 47.4311967838
Zn 43.1191767214 17.2478568161 38.80739931
Zn 47.4311525538 25.8716741076 34.4955267396
Zn 38.8073773778 25.8715438564 34.4952982146
Zn 34.4952634531 30.1834270583 43.1192764476
Zn 34.4955125193 21.5596706581 43.1190518308
Zn 34.4952252249 25.8714034739 47.4311706501
Zn 34.4955561683 25.8716182491 38.8073119573
Zn 43.1193027538 30.183560828 34.4955859293
Zn 43.119289956 21.5596035025 34.4953725408
Zn 47.4312452395 17.2477260992 43.1192515661
Zn 38.807281215 17.247630409 43.1192636981
Zn 43.1192463504 17.2475409555 64.6788967838
Zn 43.1191767214 17.2478568161 56.05509931
Zn 47.4311525538 25.8716741076 51.7432267395
Zn 38.8073773778 25.8715438564 51.7429982144
Zn 34.4952634531 30.1834270583 60.3669764442
Zn 34.4955125193 21.5596706581 60.3667518308
Zn 34.4952252249 25.8714034739 64.6788706501
Zn 34.4955561683 25.8716182491 56.0550119573
Zn 43.1193027538 30.183560828 51.7432859302
Zn 43.119289956 21.5596035025 51.7430725417
Zn 47.4312452395 17.2477260992 60.3669515661
Zn 38.807281215 17.247630409 60.3669636981
Zn 60.3669463504 -1.5904304495e-04 47.4311967838
Zn 60.3668767249 1.5681609715e-04 38.80739931
Zn 64.6788525538 8.6239741076 34.4955267396
Zn 56.0550773744 8.6238438564 34.4952982146
Zn 51.7429634534 12.9357270583 43.1192764476
Zn 51.7432125205 4.3119706616 43.1190518308
Zn 51.7429252256 8.6237034739 47.4311706501
Zn 51.7432561676 8.6239182491 38.8073119573
Zn 60.3670027538 12.935860828 34.4955859293
Zn 60.366989956 4.3119035025 34.4953725408
Zn 64.6789452395 2.609909377e-05 43.1192515661
Zn 56.054981215 -6.9592510106e-05 43.1192636981
Zn 60.3669463504 -1.5904304495e-04 64.6788967838
Zn 60.3668767249 1.5681609715e-04 56.05509931
Zn 64.6788525538 8.6239741076 51.7432267395
Zn 56.0550773744 8.6238438564 51.7429982144
Zn 51.7429634534 12.9357270583 60.3669764442
Zn 51.7432125205 4.3119706616 60.3667518308
Zn 51.7429252256 8.6237034739 64.6788706501
Zn 51.7432561676 8.6239182491 56.0550119573
Zn 60.3670027538 12.935860828 51.7432859302
Zn 60.366989956 4.3119035025 51.7430725417
Zn 64.6789452395 2.609909377e-05 60.3669515661
Zn 56.054981215 -6.9592510106e-05 60.3669636981
Zn 60.3669463504 17.2475409555 47.4311967838
Zn 60.3668767249 17.2478568161 38.80739931
Zn 64.6788525538 25.8716741076 34.4955267396
Zn 56.0550773744 25.8715438564 34.4952982146
Zn 51.7429634534 30.1834270583 43.1192764476
Zn 51.7432125205 21.5596706581 43.1190518308
Zn 51.7429252256 25.8714034739 47.4311706501
Zn 51.7432561676 25.8716182491 38.8073119573
Zn 60.3670027538 30.183560828 34.4955859293
Zn 60.366989956 21.5596035025 34.4953725408
Zn 64.6789452395 17.2477260992 43.1192515661
Zn 56.054981215 17.247630409 43.1192636981
Zn 60.3669463504 17.2475409555 64.6788967838
Zn 60.3668767249 17.2478568161 56.05509931
Zn 64.6788525538 25.8716741076 51.7432267395
Zn 56.0550773744 25.8715438564 51.7429982144
Zn 51.7429634534 30.1834270583 60.3669764442
Zn 51.7432125205 21.5596706581 60.3667518308
Zn 51.7429252256 25.8714034739 64.6788706501
Zn 51.7432561676 25.8716182491 56.0550119573
Zn 60.3670027538 30.183560828 51.7432859302
Zn 60.366989956 21.5596035025 51.7430725417
Zn 64.6789452395 17.2477260992 60.3669515661
Zn 56.054981215 17.247630409 60.3669636981
N 41.5745951991 16.659920844 46.2645278708
N 44.6637635043 0.5875350804 46.2644218009
N 44.6637595787 16.660126026 39.9740451249
N 41.5745956959 0.5878023852 39.9740359147
N 46.264482599 7.0793518255 51.1554890539
N 46.2644804189 10.1684873876 35.0832432933
N 39.9740764295 10.1684280107 51.1554119463
N 39.9740335655 7.0792580877 35.0829927084
N 51.1553447493 11.7691175774 41.57460423
N 35.0828738373 11.7689990546 44.6638327331
N 51.1554398945 5.4785983354 44.6636439191
N 35.0832339382 5.4786116954 41.5745115236
N 51.1553803761 7.0790804536 46.2644823472
N 35.0829167426 10.1682565478 46.2644161126
N 51.1554632755 10.1684437199 39.9739628603
N 35.083289086 7.0793792252 39.9739705942
N 41.5746945873 11.7691619143 51.155508223
N 44.6638267723 11.7691439491 35.0832774507
N 44.6638745484 5.4786109538 51.1554898335
N 41.574675532 5.4785734642 35.0830013599
N 46.2645291437 16.660091441 41.5746248272
N 46.2644632678 0.5875887483 44.6637887169
N 39.973969511 16.6599553394 44.6638135812
N 39.9739547918 0.5877023727 41.5747197379
N 50.1985962786 8.0361939166 37.6406645866
N 36.0400999691 9.2115833669 37.6406022017
N 36.0398399049 8.0360944457 48.5978666076
N 50.1983597747 9.2114121282 48.5978235125
N 37.6406379044 15.7029923315 42.5316147657
N 37.640585292 1.5444888055 43.7069021336
N 48.5978884018 1.5446122025 42.5315520082
N 48.5978867011 15.7031686582 43.7069626938
N 42.5316555289 3.1452315642 50.1984248675
N 43.7070022876 3.1452461316 36.0399563648
N 42.5315834335 14.1025211138 36.0401135948
N 43.7070217395 14.1025087851 50.1986853492
N 42.5314992785 15.7031953749 37.6407604114
N 43.7069427589 1.5446585195 37.6406885264
N 42.5316114679 1.544437604 48.5978866287
N 43.7069219443 15.7029987097 48.5978577699
N 50.1985325691 3.1453159054 42.5314393048
N 36.0400264456 3.145248598 43.7067863912
N 36.0398828551 14.1023973684 42.5316186912
N 50.1984259852 14.1023987793 43.7069318031
N 37.6406898476 8.0361945617 50.1983678949
N 37.6406788677 9.2115972133 36.0398505984
N 48.5978803574 8.0362485608 36.0400317269
N 48.5978326331 9.2116110736 50.1986263103
N 41.5745951991 16.659920844 63.5122278708
N 44.6637635043 0.5875350804 63.5121217974
N 44.6637595787 16.660126026 57.2217451249
N 41.5745956959 0.5878023852 57.2217359147
N 46.264482599 7.0793518255 68.4031890504
N 46.2644804189 10.1684873876 52.3309432933
N 39.9740764295 10.1684280107 68.4031119463
N 39.9740335655 7.0792580877 52.330692705
N 51.1553447493 11.7691175774 58.82230423
N 35.0828738373 11.7689990546 61.9115327331
N 51.1554398945 5.4785983354 61.9113439191
N 35.0832339382 5.4786116954 58.8222115236
N 51.1553803761 7.0790804536 63.5121823472
N 35.0829167426 10.1682565478 63.5121161126
N 51.1554632755 10.1684437199 57.2216628603
N 35.083289086 7.0793792252 57.2216705942
N 41.5746945873 11.7691619143 68.403208223
N 44.6638267723 11.7691439491 52.3309774507
N 44.6638745484 5.4786109538 68.4031898335
N 41.574675532 5.4785734642 52.3307013599
N 46.2645291437 16.660091441 58.8223248272
N 46.2644632678 0.5875887483 61.9114887204
N 39.973969511 16.6599553394 61.9115135812
N 39.9739547918 0.5877023727 58.8224197379
N 50.1985962786 8.0361939166 54.8883645866
N 36.0400999691 9.2115833669 54.8883022017
N 36.0398399049 8.0360944457 65.8455666076
N 50.1983597747 9.2114121282 65.8455235125
N 37.6406379044 15.7029923315 59.7793147657
N 37.640585292 1.5444888055 60.9546021371
N 48.5978884018 1.5446122025 59.7792520047
N 48.5978867011 15.7031686582 60.9546626903
N 42.5316555289 3.1452315642 67.4461248675
N 43.7070022876 3.1452461316 53.2876563648
N 42.5315834335 14.1025211138 53.2878135914
N 43.7070217395 14.1025087851 67.4463853458
N 42.5314992785 15.7031953749 54.8884604114
N 43.7069427589 1.5446585195 54.8883885264
N 42.5316114679 1.544437604 65.8455866287
N 43.7069219443 15.7029987097 65.8455577699
N 50.1985325691 3.1453159054 59.7791393048
N 36.0400264456 3.145248598 60.9544863878
N 36.0398828551 14.1023973684 59.7793186912
N 50.1984259852 14.1023987793 60.9546318031
N 37.6406898476 8.0361945617 67.4460678915
N 37.6406788677 9.2115972133 53.2875505984
N 48.5978803574 8.0362485608 53.2877317269
N 48.5978326331 9.2116110736 67.4463263103
N 41.5745951991 33.907620844 46.2645278708
N 44.6637635043 17.8352350804 46.2644218009
N 44.6637595787 33.907826026 39.9740451249
N 41.5745956959 17.8355023852 39.9740359147
N 46.264482599 24.3270518255 51.1554890539
N 46.2644804189 27.4161873841 35.0832432933
N 39.9740764295 27.4161280107 51.1554119463
N 39.9740335655 24.3269580843 35.0829927084
N 51.1553447493 29.0168175774 41.57460423
N 35.0828738373 29.0166990546 44.6638327331
N 51.1554398945 22.7262983354 44.6636439191
N 35.0832339382 22.7263116954 41.5745115236
N 51.1553803761 24.3267804536 46.2644823472
N 35.0829167426 27.4159565478 46.2644161126
N 51.1554632755 27.4161437199 39.9739628603
N 35.083289086 24.3270792252 39.9739705942
N 41.5746945873 29.0168619143 51.155508223
N 44.6638267723 29.0168439491 35.0832774507
N 44.6638745484 22.7263109572 51.1554898335
N 41.574675532 22.7262734642 35.0830013599
N 46.2645291437 33.907791441 41.5746248272
N 46.2644632678 17.8352887483 44.6637887169
N 39.973969511 33.9076553394 44.6638135812
N 39.9739547918 17.8354023762 41.5747197379
N 50.1985962786 25.2838939201 37.6406645866
N 36.0400999691 26.4592833634 37.6406022017
N 36.0398399049 25.2837944457 48.5978666076
N 50.1983597747 26.4591121248 48.5978235125
N 37.6406379044 32.9506923315 42.5316147657
N 37.640585292 18.7921888055 43.7069021336
N 48.5978884018 18.7923122059 42.5315520082
N 48.5978867011 32.9508686582 43.7069626938
N 42.5316555289 20.3929315642 50.1984248675
N 43.7070022876 20.3929461316 36.0399563648
N 42.5315834335 31.3502211138 36.0401135948
N 43.7070217395 31.3502087886 50.1986853492
N 42.5314992785 32.9508953749 37.6407604114
N 43.7069427589 18.792358516 37.6406885264
N 42.5316114679 18.792137604 48.5978866287
N 43.7069219443 32.9506987097 48.5978577699
N 50.1985325691 20.3930159054 42.5314393048
N 36.0400264456 20.392948598 43.7067863912
N 36.0398828551 31.3500973684 42.5316186912
N 50.1984259852 31.3500987793 43.7069318031
N 37.6406898476 25.2838945617 50.1983678949
N 37.6406788677 26.4592972133 36.0398505984
N 48.5978803574 25.2839485608 36.0400317269
N 48.5978326331 26.4593110701 50.1986263103
N 41.5745951991 33.907620844 63.5122278708
N 44.6637635043 17.8352350804 63.5121217974
N 44.6637595787 33.907826026 57.2217451249
N 41.5745956959 17.8355023852 57.2217359147
N 46.264482599 24.3270518255 68.4031890504
N 46.2644804189 27.4161873841 52.3309432933
N 39.9740764295 27.4161280107 68.4031119463
N 39.9740335655 24.3269580843 52.330692705
N 51.1553447493 29.0168175774 58.82230423
N 35.0828738373 29.0166990546 61.9115327331
N 51.1554398945 22.7262983354 61.9113439191
N 35.0832339382 22.7263116954 58.8222115236
N 51.1553803761 24.3267804536 63.5121823472
N 35.0829167426 27.4159565478 63.5121161126
N 51.1554632755 27.4161437199 57.2216628603
N 35.083289086 24.3270792252 57.2216705942
N 41.5746945873 29.0168619143 68.403208223
N 44.6638267723 29.0168439491 52.3309774507
N 44.6638745484 22.7263109572 68.4031898335
N 41.574675532 22.7262734642 52.3307013599
N 46.2645291437 33.907791441 58.8223248272
N 46.2644632678 17.8352887483 61.9114887204
N 39.973969511 33.9076553394 61.9115135812
N 39.9739547918 17.8354023762 58.8224197379
N 50.1985962786 25.2838939201 54.8883645866
N 36.0400999691 26.4592833634 54.8883022017
N 36.0398399049 25.2837944457 65.8455666076
N 50.1983597747 26.4591121248 65.8455235125
N 37.6406379044 32.9506923315 59.7793147657
N 37.640585292 18.7921888055 60.9546021371
N 48.5978884018 18.7923122059 59.7792520047
N 48.5978867011 32.9508686582 60.9546626903
N 42.5316555289 20.3929315642 67.4461248675
N 43.7070022876 20.3929461316 53.2876563648
N 42.5315834335 31.3502211138 53.2878135914
N 43.7070217395 31.3502087886 67.4463853458
N 42.5314992785 32.9508953749 54.8884604114
N 43.7069427589 18.792358516 54.8883885264
N 42.5316114679 18.792137604 65.8455866287
N 43.7069219443 32.9506987097 65.8455577699
N 50.1985325691 20.3930159054 59.7791393048
N 36.0400264456 20.392948598 60.9544863878
N 36.0398828551 31.3500973684 59.7793186912
N 50.1984259852 31.3500987793 60.9546318031
N 37.6406898476 25.2838945617 67.4460678915
N 37.6406788677 26.4592972133 53.2875505984
N 48.5978803574 25.2839485608 53.2877317269
N 48.5978326331 26.4593110701 67.4463263103
N 58.8222951991 16.659920844 46.2645278708
N 61.9114635077 0.5875350804 46.2644218009
N 61.9114595787 16.660126026 39.9740451249
N 58.8222956959 0.5878023852 39.9740359147
N 63.512182599 7.0793518255 51.1554890539
N 63.5121804189 10.1684873876 35.0832432933
N 57.2217764295 10.1684280107 51.1554119463
N 57.2217335655 7.0792580877 35.0829927084
N 68.4030447493 11.7691175774 41.57460423
N 52.3305738373 11.7689990546 44.6638327331
N 68.4031398945 5.4785983354 44.6636439191
N 52.3309339382 5.4786116954 41.5745115236
N 68.4030803761 7.0790804536 46.2644823472
N 52.3306167426 10.1682565478 46.2644161126
N 68.403163272 10.1684437199 39.9739628603
N 52.330989086 7.0793792252 39.9739705942
N 58.8223945873 11.7691619143 51.155508223
N 61.9115267723 11.7691439491 35.0832774507
N 61.9115745484 5.4786109538 51.1554898335
N 58.8223755286 5.4785734642 35.0830013599
N 63.5122291437 16.660091441 41.5746248272
N 63.5121632678 0.5875887483 44.6637887169
N 57.221669511 16.6599553394 44.6638135812
N 57.2216547884 0.5877023727 41.5747197379
N 67.4462962786 8.0361939166 37.6406645866
N 53.2877999691 9.2115833669 37.6406022017
N 53.2875399049 8.0360944457 48.5978666076
N 67.4460597747 9.2114121282 48.5978235125
N 54.8883379044 15.7029923315 42.5316147657
N 54.888285292 1.5444888055 43.7069021336
N 65.8455884052 1.5446122025 42.5315520082
N 65.8455867046 15.7031686582 43.7069626938
N 59.7793555289 3.1452315642 50.1984248675
N 60.9547022876 3.1452461316 36.0399563648
N 59.7792834335 14.1025211138 36.0401135948
N 60.9547217395 14.1025087851 50.1986853492
N 59.7791992785 15.7031953749 37.6407604114
N 60.9546427589 1.5446585195 37.6406885264
N 59.7793114645 1.544437604 48.5978866287
N 60.9546219443 15.7029987097 48.5978577699
N 67.4462325691 3.1453159054 42.5314393048
N 53.2877264491 3.145248598 43.7067863912
N 53.2875828551 14.1023973684 42.5316186912
N 67.4461259852 14.1023987793 43.7069318031
N 54.8883898476 8.0361945617 50.1983678949
N 54.8883788712 9.2115972133 36.0398505984
N 65.8455803574 8.0362485608 36.0400317269
N 65.8455326331 9.2116110736 50.1986263103
N 58.8222951991 16.659920844 63.5122278708
N 61.9114635077 0.5875350804 63.5121217974
N 61.9114595787 16.660126026 57.2217451249
N 58.8222956959 0.5878023852 57.2217359147
N 63.512182599 7.0793518255 68.4031890504
N 63.5121804189 10.1684873876 52.3309432933
N 57.2217764295 10.1684280107 68.4031119463
N 57.2217335655 7.0792580877 52.330692705
N 68.4030447493 11.7691175774 58.82230423
N 52.3305738373 11.7689990546 61.9115327331
N 68.4031398945 5.4785983354 61.9113439191
N 52.3309339382 5.4786116954 58.8222115236
N 68.4030803761 7.0790804536 63.5121823472
N 52.3306167426 10.1682565478 63.5121161126
N 68.403163272 10.1684437199 57.2216628603
N 52.330989086 7.0793792252 57.2216705942
N 58.8223945873 11.7691619143 68.403208223
N 61.9115267723 11.7691439491 52.3309774507
N 61.9115745484 5.4786109538 68.4031898335
N 58.8223755286 5.4785734642 52.3307013599
N 63.5122291437 16.660091441 58.8223248272
N 63.5121632678 0.5875887483 61.9114887204
N 57.221669511 16.6599553394 61.9115135812
N 57.2216547884 0.5877023727 58.8224197379
N 67.4462962786 8.0361939166 54.8883645866
N 53.2877999691 9.2115833669 54.8883022017
N 53.2875399049 8.0360944457 65.8455666076
N 67.4460597747 9.2114121282 65.8455235125
N 54.8883379044 15.7029923315 59.7793147657
N 54.888285292 1.5444888055 60.9546021371
N 65.8455884052 1.5446122025 59.7792520047
N 65.8455867046 15.7031686582 60.9546626903
N 59.7793555289 3.1452315642 67.4461248675
N 60.9547022876 3.1452461316 53.2876563648
N 59.7792834335 14.1025211138 53.2878135914
N 60.9547217395 14.1025087851 67.4463853458
N 59.7791992785 15.7031953749 54.8884604114
N 60.9546427589 1.5446585195 54.8883885264
N 59.7793114645 1.544437604 65.8455866287
N 60.9546219443 15.7029987097 65.8455577699
N 67.4462325691 3.1453159054 59.7791393048
N 53.2877264491 3.145248598 60.9544863878
N 53.2875828551 14.1023973684 59.7793186912
N 67.4461259852 14.1023987793 60.9546318031
N 54.8883898476 8.0361945617 67.4460678915
N 54.8883788712 9.2115972133 53.2875505984
N 65.8455803574 8.0362485608 53.2877317269
N 65.8455326331 9.2116110736 67.4463263103
N 58.8222951991 33.907620844 46.2645278708
N 61.9114635077 17.8352350804 46.2644218009
N 61.9114595787 33.907826026 39.9740451249
N 58.8222956959 17.8355023852 39.9740359147
N 63.512182599 24.3270518255 51.1554890539
N 63.5121804189 27.4161873841 35.0832432933
N 57.2217764295 27.4161280107 51.1554119463
N 57.2217335655 24.3269580843 35.0829927084
N 68.4030447493 29.0168175774 41.57460423
N 52.3305738373 29.0166990546 44.6638327331
N 68.4031398945 22.7262983354 44.6636439191
N 52.3309339382 22.7263116954 41.5745115236
N 68.4030803761 24.3267804536 46.2644823472
N 52.3306167426 27.4159565478 46.2644161126
N 68.403163272 27.4161437199 39.9739628603
N 52.330989086 24.3270792252 39.9739705942
N 58.8223945873 29.0168619143 51.155508223
N 61.9115267723 29.0168439491 35.0832774507
N 61.9115745484 22.7263109572 51.1554898335
N 58.8223755286 22.7262734642 35.0830013599
N 63.5122291437 33.907791441 41.5746248272
N 63.5121632678 17.8352887483 44.6637887169
N 57.221669511 33.9076553394 44.6638135812
N 57.2216547884 17.8354023762 41.5747197379
N 67.4462962786 25.2838939201 37.6406645866
N 53.2877999691 26.4592833634 37.6406022017
N 53.2875399049 25.2837944457 48.5978666076
N 67.4460597747 26.4591121248 48.5978235125
N 54.8883379044 32.9506923315 42.5316147657
N 54.888285292 18.7921888055 43.7069021336
N 65.8455884052 18.7923122059 42.5315520082
N 65.8455867046 32.9508686582 43.7069626938
N 59.7793555289 20.3929315642 50.1984248675
N 60.9547022876 20.3929461316 36.0399563648
N 59.7792834335 31.3502211138 36.0401135948
N 60.9547217395 31.3502087886 50.1986853492
N 59.7791992785 32.9508953749 37.6407604114
N 60.9546427589 18.792358516 37.6406885264
N 59.7793114645 18.792137604 48.5978866287
N 60.9546219443 32.9506987097 48.5978577699
N 67.4462325691 20.3930159054 42.5314393048
N 53.2877264491 20.392948598 43.7067863912
N 53.2875828551 31.3500973684 42.5316186912
N 67.4461259852 31.3500987793 43.7069318031
N 54.8883898476 25.2838945617 50.1983678949
N 54.8883788712 26.4592972133 36.0398505984
N 65.8455803574 25.2839485608 36.0400317269
N 65.8455326331 26.4593110701 50.1986263103
N 58.8222951991 33.907620844 63.5122278708
N 61.9114635077 17.8352350804 63.5121217974
N 61.9114595787 33.907826026 57.2217451249
N 58.8222956959 17.8355023852 57.2217359147
N 63.512182599 24.3270518255 68.4031890504
N 63.5121804189 27.4161873841 52.3309432933
N 57.2217764295 27.4161280107 68.4031119463
N 57.2217335655 24.3269580843 52.330692705
N 68.4030447493 29.0168175774 58.82230423
N 52.3305738373 29.0166990546 61.9115327331
N 68.4031398945 22.7262983354 61.9113439191
N 52.3309339382 22.7263116954 58.8222115236
N 68.4030803761 24.3267804536 63.5121823472
N 52.3306167426 27.4159565478 63.5121161126
N 68.403163272 27.4161437199 57.2216628603
N 52.330989086 24.3270792252 57.2216705942
N 58.8223945873 29.0168619143 68.403208223
N 61.9115267723 29.0168439491 52.3309774507
N 61.9115745484 22.7263109572 68.4031898335
N 58.8223755286 22.7262734642 52.3307013599
N 63.5122291437 33.907791441 58.8223248272
N 63.5121632678 17.8352887483 61.9114887204
N 57.221669511 33.9076553394 61.9115135812
N 57.2216547884 17.8354023762 58.8224197379
N 67.4462962786 25.2838939201 54.8883645866
N 53.2877999691 26.4592833634 54.8883022017
N 53.2875399049 25.2837944457 65.8455666076
N 67.4460597747 26.4591121248 65.8455235125
N 54.8883379044 32.9506923315 59.7793147657
N 54.888285292 18.7921888055 60.9546021371
N 65.8455884052 18.7923122059 59.7792520047
N 65.8455867046 32.9508686582 60.9546626903
N 59.7793555289 20.3929315642 67.4461248675
N 60.9547022876 20.3929461316 53.2876563648
N 59.7792834335 31.3502211138 53.2878135914
N 60.9547217395 31.3502087886 67.4463853458
N 59.7791992785 32.9508953749 54.8884604114
N 60.9546427589 18.792358516 54.8883885264
N 59.7793114645 18.792137604 65.8455866287
N 60.9546219443 32.9506987097 65.8455577699
N 67.4462325691 20.3930159054 59.7791393048
N 53.2877264491 20.392948598 60.9544863878
N 53.2875828551 31.3500973684 59.7793186912
N 67.4461259852 31.3500987793 60.9546318031
N 54.8883898476 25.2838945617 67.4460678915
N 54.8883788712 26.4592972133 53.2875505984
N 65.8455803574 25.2839485608 53.2877317269
N 65.8455326331 26.4593110701 67.4463263103
H 41.1670332244 49.159829627 12.5704588449
H 45.0711207695 37.0785143537 12.5702727767
H 45.0711349505 49.1599807272 4.6773199978
H 41.1670827702 37.0787487983 4.6774042977
H 47.0658285441 41.1673041306 14.6645768637
H 47.0658280543 45.0713268415 2.5833747457
H 39.1727644313 45.0713445618 14.6644755059
H 39.172781065 41.1672588726 2.5831732546
H 49.1597990193 47.0657500291 6.6716451805
H 37.0784551251 47.0656684717 10.575859986
H 49.1599185562 39.1725507358 10.5756444587
H 37.0787669359 39.1726926119 6.6716109852
H 49.1598841091 41.1667988868 12.5703999371
H 37.07852572 45.0710440413 12.5702354734
H 49.1599040888 45.0711993741 4.6771836754
H 37.078845513 41.1673603374 4.6772747192
H 41.1672249464 47.0659196913 14.6646014935
H 45.0713346168 47.0658204584 2.5834231048
H 45.0714136975 39.1726850816 14.6645750458
H 41.1672499625 39.1727449069 2.5831740722
H 47.0657793399 49.1599678535 6.6717126328
H 47.0656881202 37.0785568072 10.5758204336
H 39.1725795808 49.159837078 10.5758642496
H 39.1726346631 37.0786488927 6.6719715864
H 49.7910846672 40.5360662277 3.9465490816
H 36.4475799069 45.7025410495 3.9464576619
H 36.4472668266 40.5359445004 13.3011759897
H 49.7909496867 45.7023200927 13.3010298499
H 38.4419435071 49.7908824345 6.0406962422
H 38.4418554507 36.4473559214 11.2070529207
H 47.7964771569 36.4474103689 6.0406242572
H 47.7966031617 49.7911654451 11.207126282
H 40.5361660333 38.4419934565 15.2954323886
H 45.7025994261 38.4418916019 1.9519793127
H 40.536036196 47.7965535953 1.9521291745
H 45.7025742513 47.7966177808 15.2958314693
H 40.5359525067 49.791059251 3.9466261685
H 45.7025294591 36.4474872764 3.9465632799
H 40.5360738409 36.4473044335 13.3011231738
H 45.7024393329 49.7908790022 13.3010958672
H 49.7909404971 38.4419863194 6.0405267766
H 36.4474876248 38.4419764192 11.2069213794
H 36.4472917254 47.796506133 6.0406649514
H 49.7909496936 47.7965130045 11.2070640213
H 38.4420374519 40.5361019684 15.295449481
H 38.4419518585 45.7025688839 1.9518222827
H 47.7965307455 40.5361169153 1.9520683626
H 47.7966327657 45.702573727 15.2957290042
H 40.9110690982 36.806436581 10.8323577008
H 44.9806318325 50.1147531944 9.2059314784
H 45.3276379156 36.8066091822 6.4154780903
H 40.9109201919 49.4320386271 6.4154350124
H 43.7013190083 41.2579519637 1.6281910313
H 45.32750229 45.3277501912 14.936746853
H 42.5371631231 44.9805302884 1.6282438989
H 40.9109040032 40.91085097 14.9364630455
H 36.1236175824 43.7015041003 6.7626364774
H 49.4317426738 45.327483214 10.8322439523
H 36.1234114517 42.5372534665 10.4850079125
H 49.4321233168 40.9109300542 6.4154148844
H 36.8065357829 40.9111439429 10.8323177862
H 50.1146622024 44.9805082907 9.2059591851
H 36.806544217 45.3277779255 6.4155560637
H 50.1151227505 41.2579967698 8.0416638005
H 40.9108665171 45.3275323596 2.311167191
H 44.9805448248 43.701457942 15.6196679339
H 45.3275745406 40.9109109782 2.3111935489
H 41.2580004539 42.5370937839 15.6194671707
H 43.701393715 36.1236448889 6.7626688203
H 45.3275720362 49.4318439868 10.8322250108
H 42.537224863 36.1233744726 10.4850315833
H 42.5371525675 50.1150862371 6.7625115282
H 49.5348141977 45.4304212649 2.2083957978
H 36.3566767078 41.491130764 0.5820763696
H 36.7036801036 45.430338438 15.039198836
H 49.8816347059 41.491169523 16.6657338294
H 35.0774670283 49.8817898351 10.2520325212
H 36.7039227753 36.7036178187 6.3126363368
H 49.5349464496 36.7039489746 10.9349046049
H 51.160982605 49.8816701982 6.9957140096
H 45.4304459394 36.703611137 15.0392742257
H 41.4910141213 35.0776140201 1.8614266213
H 44.7473856558 51.1611194759 1.8615127253
H 41.4911388566 51.1609675616 15.3864515233
H 45.4303734129 49.5348882111 2.2085569051
H 40.808134183 36.703937222 2.2082971858
H 44.7475152999 36.3567935782 16.66559166
H 40.8081370358 49.5346794863 15.0395343659
H 49.8819749512 35.0776614892 10.2519884189
H 36.356637114 35.0774420053 6.9956313345
H 36.7037142851 49.5346892347 10.9350316204
H 49.5346886207 49.5347451069 6.3127268355
H 35.0774423675 44.747335741 15.3863801523
H 36.7039733387 40.8081871438 2.2082899693
H 51.1610859912 44.7474596001 1.8613917741
H 49.5345353887 40.8081016332 15.0395123337
H 41.2578523479 36.1235244206 9.2060063507
H 43.7013416304 50.1147780311 10.4850007789
H 44.9806889845 36.1236651343 8.0417595425
H 41.2579908504 50.1149910333 8.0417108901
H 44.9805018676 42.5371587353 1.6282389247
H 43.7012826812 44.9805514582 15.6197475527
H 41.257967873 43.7013260074 1.6281314784
H 42.5371709121 41.2579047602 15.6194829282
H 36.123523779 44.9807193128 8.0417892775
H 50.1146907888 43.7012625704 10.4850659786
H 36.1236372585 41.2579255057 9.2059653736
H 50.1151188491 42.5371718573 6.762495443
H 49.8819310938 44.7474392237 0.5821559816
H 35.077623765 41.4910282713 1.8613891835
H 36.3567189612 44.7474262672 16.6655056527
H 51.1608324776 41.4910620975 15.386553571
H 36.3567144975 51.1609341666 10.2520387235
H 35.0775707594 36.3567258672 6.9954805723
H 51.1611690561 36.3568657495 10.2518490299
H 49.8819241706 51.1609544878 6.9957147823
H 44.7474341046 35.0774362377 15.3865805361
H 41.4911328924 36.3566504154 0.5821089126
H 44.747423618 49.881970698 0.5822989374
H 41.4912096032 49.8818841318 16.665724864
H 41.1670332244 49.159829627 29.8181588449
H 45.0711207695 37.0785143537 29.8179727767
H 45.0711349505 49.1599807272 21.9250199978
H 41.1670827702 37.0787487983 21.9251043011
H 47.0658285441 41.1673041306 31.9122768603
H 47.0658280543 45.0713268415 19.8310747457
H 39.1727644313 45.0713445618 31.9121755059
H 39.172781065 41.1672588726 19.8308732546
H 49.1597990193 47.0657500291 23.9193451771
H 37.0784551251 47.0656684717 27.823559986
H 49.1599185562 39.1725507358 27.8233444587
H 37.0787669359 39.1726926119 23.9193109818
H 49.1598841091 41.1667988868 29.8180999371
H 37.07852572 45.0710440413 29.8179354699
H 49.1599040888 45.0711993741 21.9248836754
H 37.078845513 41.1673603374 21.9249747192
H 41.1672249464 47.0659196913 31.9123014935
H 45.0713346168 47.0658204584 19.8311231048
H 45.0714136975 39.1726850816 31.9122750424
H 41.1672499625 39.1727449069 19.8308740687
H 47.0657793399 49.1599678535 23.9194126328
H 47.0656881202 37.0785568072 27.8235204336
H 39.1725795808 49.159837078 27.8235642496
H 39.1726346631 37.0786488927 23.9196715864
H 49.7910846672 40.5360662277 21.1942490816
H 36.4475799069 45.7025410495 21.1941576619
H 36.4472668266 40.5359445004 30.5488759897
H 49.7909496867 45.7023200927 30.5487298499
H 38.4419435071 49.7908824345 23.2883962456
H 38.4418554507 36.4473559214 28.4547529207
H 47.7964771569 36.4474103689 23.2883242572
H 47.7966031617 49.7911654451 28.454826282
H 40.5361660333 38.4419934565 32.5431323886
H 45.7025994261 38.4418916019 19.1996793127
H 40.536036196 47.7965535953 19.1998291745
H 45.7025742513 47.7966177808 32.5435314693
H 40.5359525067 49.791059251 21.1943261719
H 45.7025294591 36.4474872764 21.1942632764
H 40.5360738409 36.4473044335 30.5488231738
H 45.7024393329 49.7908790022 30.5487958638
H 49.7909404971 38.4419863194 23.2882267766
H 36.4474876248 38.4419764192 28.4546213828
H 36.4472917254 47.796506133 23.2883649549
H 49.7909496936 47.7965130045 28.4547640213
H 38.4420374519 40.5361019684 32.5431494776
H 38.4419518585 45.7025688839 19.1995222827
H 47.7965307455 40.5361169153 19.1997683591
H 47.7966327657 45.702573727 32.5434290042
H 40.9110690982 36.806436581 28.0800576974
H 44.9806318325 50.1147531944 26.4536314784
H 45.3276379156 36.8066091822 23.6631780903
H 40.9109201919 49.4320386271 23.6631350124
H 43.7013190083 41.2579519637 18.8758910313
H 45.32750229 45.3277501912 32.184446853
H 42.5371631231 44.9805302884 18.8759438989
H 40.9109040032 40.91085097 32.1841630455
H 36.1236175824 43.7015041003 24.0103364774
H 49.4317426738 45.327483214 28.0799439523
H 36.1234114517 42.5372534665 27.7327079091
H 49.4321233168 40.9109300542 23.6631148878
H 36.8065357829 40.9111439429 28.0800177862
H 50.1146622024 44.9805082907 26.4536591851
H 36.806544217 45.3277779255 23.6632560672
H 50.1151227505 41.2579967698 25.2893638005
H 40.9108665171 45.3275323596 19.558867191
H 44.9805448248 43.701457942 32.8673679339
H 45.3275745406 40.9109109782 19.5588935455
H 41.2580004539 42.5370937839 32.8671671707
H 43.701393715 36.1236448889 24.0103688203
H 45.3275720362 49.4318439868 28.0799250108
H 42.537224863 36.1233744726 27.7327315833
H 42.5371525675 50.1150862371 24.0102115282
H 49.5348141977 45.4304212649 19.4560957978
H 36.3566767078 41.491130764 17.8297763696
H 36.7036801036 45.430338438 32.286898836
H 49.8816347059 41.491169523 33.9134338294
H 35.0774670283 49.8817898351 27.4997325212
H 36.7039227753 36.7036178187 23.5603363368
H 49.5349464496 36.7039489746 28.1826046014
H 51.160982605 49.8816701982 24.2434140096
H 45.4304459394 36.703611137 32.2869742257
H 41.4910141213 35.0776140201 19.1091266213
H 44.7473856558 51.1611194759 19.1092127253
H 41.4911388566 51.1609675616 32.6341515233
H 45.4303734129 49.5348882111 19.4562569051
H 40.808134183 36.703937222 19.4559971858
H 44.7475152999 36.3567935782 33.91329166
H 40.8081370358 49.5346794863 32.2872343659
H 49.8819749512 35.0776614892 27.4996884189
H 36.356637114 35.0774420053 24.2433313345
H 36.7037142851 49.5346892347 28.1827316204
H 49.5346886207 49.5347451069 23.5604268355
H 35.0774423675 44.747335741 32.6340801488
H 36.7039733387 40.8081871438 19.4559899659
H 51.1610859912 44.7474596001 19.1090917741
H 49.5345353887 40.8081016332 32.2872123337
H 41.2578523479 36.1235244206 26.4537063507
H 43.7013416304 50.1147780311 27.7327007789
H 44.9806889845 36.1236651343 25.2894595425
H 41.2579908504 50.1149910333 25.2894108901
H 44.9805018676 42.5371587353 18.8759389281
H 43.7012826812 44.9805514582 32.8674475527
H 41.257967873 43.7013260074 18.8758314784
H 42.5371709121 41.2579047602 32.8671829282
H 36.123523779 44.9807193128 25.2894892775
H 50.1146907888 43.7012625704 27.7327659786
H 36.1236372585 41.2579255057 26.4536653736
H 50.1151188491 42.5371718573 24.0101954396
H 49.8819310938 44.7474392237 17.8298559816
H 35.077623765 41.4910282713 19.1090891835
H 36.3567189612 44.7474262672 33.9132056527
H 51.1608324776 41.4910620975 32.634253571
H 36.3567144975 51.1609341666 27.4997387235
H 35.0775707594 36.3567258672 24.2431805723
H 51.1611690561 36.3568657495 27.4995490299
H 49.8819241706 51.1609544878 24.2434147823
H 44.7474341046 35.0774362377 32.6342805361
H 41.4911328924 36.3566504154 17.8298089126
H 44.747423618 49.881970698 17.8299989339
H 41.4912096032 49.8818841318 33.913424864
H 41.1670332244 66.407529627 12.5704588449
H 45.0711207695 54.3262143537 12.5702727767
H 45.0711349505 66.4076807272 4.6773199978
H 41.1670827702 54.3264487983 4.6774042977
H 47.0658285441 58.4150041306 14.6645768637
H 47.0658280543 62.3190268415 2.5833747457
H 39.1727644313 62.3190445618 14.6644755059
H 39.172781065 58.4149588761 2.5831732546
H 49.1597990193 64.3134500291 6.6716451805
H 37.0784551251 64.3133684717 10.575859986
H 49.1599185562 56.4202507358 10.5756444587
H 37.0787669359 56.4203926119 6.6716109852
H 49.1598841091 58.4144988868 12.5703999371
H 37.07852572 62.3187440413 12.5702354734
H 49.1599040888 62.3188993741 4.6771836754
H 37.078845513 58.415060334 4.6772747192
H 41.1672249464 64.3136196913 14.6646014935
H 45.0713346168 64.3135204584 2.5834231048
H 45.0714136975 56.4203850816 14.6645750458
H 41.1672499625 56.4204449069 2.5831740722
H 47.0657793399 66.4076678535 6.6717126328
H 47.0656881202 54.3262568038 10.5758204336
H 39.1725795808 66.407537078 10.5758642496
H 39.1726346631 54.3263488927 6.6719715864
H 49.7910846672 57.7837662277 3.9465490816
H 36.4475799069 62.9502410495 3.9464576619
H 36.4472668266 57.7836445004 13.3011759897
H 49.7909496867 62.9500200927 13.3010298499
H 38.4419435071 67.0385824345 6.0406962422
H 38.4418554507 53.6950559214 11.2070529207
H 47.7964771569 53.6951103689 6.0406242572
H 47.7966031617 67.0388654451 11.207126282
H 40.5361660333 55.6896934565 15.2954323886
H 45.7025994261 55.6895916019 1.9519793127
H 40.536036196 65.0442535953 1.9521291745
H 45.7025742513 65.0443177808 15.2958314693
H 40.5359525067 67.038759251 3.9466261685
H 45.7025294591 53.6951872764 3.9465632799
H 40.5360738409 53.6950044301 13.3011231738
H 45.7024393329 67.0385790022 13.3010958672
H 49.7909404971 55.6896863194 6.0405267766
H 36.4474876248 55.6896764192 11.2069213794
H 36.4472917254 65.044206133 6.0406649514
H 49.7909496936 65.0442130045 11.2070640213
H 38.4420374519 57.783801965 15.295449481
H 38.4419518585 62.9502688839 1.9518222827
H 47.7965307455 57.7838169118 1.9520683626
H 47.7966327657 62.9502737236 15.2957290042
H 40.9110690982 54.054136581 10.8323577008
H 44.9806318325 67.3624531944 9.2059314784
H 45.3276379156 54.0543091822 6.4154780903
H 40.9109201919 66.6797386306 6.4154350124
H 43.7013190083 58.5056519637 1.6281910313
H 45.32750229 62.5754501877 14.936746853
H 42.5371631231 62.2282302884 1.6282438989
H 40.9109040032 58.15855097 14.9364630455
H 36.1236175824 60.9492041003 6.7626364774
H 49.4317426738 62.575183214 10.8322439523
H 36.1234114517 59.78495347 10.4850079125
H 49.4321233168 58.1586300542 6.4154148844
H 36.8065357829 58.1588439464 10.8323177862
H 50.1146622024 62.2282082907 9.2059591851
H 36.806544217 62.575477922 6.4155560637
H 50.1151227505 58.5056967698 8.0416638005
H 40.9108665171 62.5752323596 2.311167191
H 44.9805448248 60.949157942 15.6196679339
H 45.3275745406 58.1586109782 2.3111935489
H 41.2580004539 59.7847937839 15.6194671707
H 43.701393715 53.3713448924 6.7626688203
H 45.3275720362 66.6795439868 10.8322250108
H 42.537224863 53.3710744726 10.4850315833
H 42.5371525675 67.3627862371 6.7625115282
H 49.5348141977 62.6781212649 2.2083957978
H 36.3566767078 58.738830764 0.5820763696
H 36.7036801036 62.678038438 15.039198836
H 49.8816347059 58.738869523 16.6657338294
H 35.0774670283 67.1294898351 10.2520325212
H 36.7039227753 53.9513178187 6.3126363368
H 49.5349464496 53.9516489746 10.9349046049
H 51.160982605 67.1293701982 6.9957140096
H 45.4304459394 53.951311137 15.0392742257
H 41.4910141213 52.3253140201 1.8614266213
H 44.7473856558 68.4088194759 1.8615127253
H 41.4911388566 68.408667565 15.3864515233
H 45.4303734129 66.7825882111 2.2085569051
H 40.808134183 53.9516372186 2.2082971858
H 44.7475152999 53.6044935782 16.66559166
H 40.8081370358 66.7823794863 15.0395343659
H 49.8819749512 52.3253614857 10.2519884189
H 36.356637114 52.3251420019 6.9956313345
H 36.7037142851 66.7823892347 10.9350316204
H 49.5346886207 66.7824451069 6.3127268355
H 35.0774423675 61.995035741 15.3863801523
H 36.7039733387 58.0558871404 2.2082899693
H 51.1610859912 61.9951596001 1.8613917741
H 49.5345353887 58.0558016332 15.0395123337
H 41.2578523479 53.3712244206 9.2060063507
H 43.7013416304 67.3624780276 10.4850007789
H 44.9806889845 53.3713651343 8.0417595425
H 41.2579908504 67.3626910333 8.0417108901
H 44.9805018676 59.7848587353 1.6282389247
H 43.7012826812 62.2282514582 15.6197475527
H 41.257967873 60.9490260074 1.6281314784
H 42.5371709121 58.5056047602 15.6194829282
H 36.123523779 62.2284193128 8.0417892775
H 50.1146907888 60.9489625738 10.4850659786
H 36.1236372585 58.5056255057 9.2059653736
H 50.1151188491 59.7848718573 6.762495443
H 49.8819310938 61.9951392237 0.5821559816
H 35.077623765 58.7387282678 1.8613891835
H 36.3567189612 61.9951262672 16.6655056527
H 51.1608324776 58.7387620975 15.386553571
H 36.3567144975 68.4086341666 10.2520387235
H 35.0775707594 53.6044258672 6.9954805723
H 51.1611690561 53.6045657495 10.2518490299
H 49.8819241706 68.4086544878 6.9957147823
H 44.7474341046 52.3251362377 15.3865805361
H 41.4911328924 53.6043504154 0.5821089126
H 44.747423618 67.129670698 0.5822989374
H 41.4912096032 67.1295841352 16.665724864
H 41.1670332244 66.407529627 29.8181588449
H 45.0711207695 54.3262143537 29.8179727767
H 45.0711349505 66.4076807272 21.9250199978
H 41.1670827702 54.3264487983 21.9251043011
H 47.0658285441 58.4150041306 31.9122768603
H 47.0658280543 62.3190268415 19.8310747457
H 39.1727644313 62.3190445618 31.9121755059
H 39.172781065 58.4149588761 19.8308732546
H 49.1597990193 64.3134500291 23.9193451771
H 37.0784551251 64.3133684717 27.823559986
H 49.1599185562 56.4202507358 27.8233444587
H 37.0787669359 56.4203926119 23.9193109818
H 49.1598841091 58.4144988868 29.8180999371
H 37.07852572 62.3187440413 29.8179354699
H 49.1599040888 62.3188993741 21.9248836754
H 37.078845513 58.415060334 21.9249747192
H 41.1672249464 64.3136196913 31.9123014935
H 45.0713346168 64.3135204584 19.8311231048
H 45.0714136975 56.4203850816 31.9122750424
H 41.1672499625 56.4204449069 19.8308740687
H 47.0657793399 66.4076678535 23.9194126328
H 47.0656881202 54.3262568038 27.8235204336
H 39.1725795808 66.407537078 27.8235642496
H 39.1726346631 54.3263488927 23.9196715864
H 49.7910846672 57.7837662277 21.1942490816
H 36.4475799069 62.9502410495 21.1941576619
H 36.4472668266 57.7836445004 30.5488759897
H 49.7909496867 62.9500200927 30.5487298499
H 38.4419435071 67.0385824345 23.2883962456
H 38.4418554507 53.6950559214 28.4547529207
H 47.7964771569 53.6951103689 23.2883242572
H 47.7966031617 67.0388654451 28.454826282
H 40.5361660333 55.6896934565 32.5431323886
H 45.7025994261 55.6895916019 19.1996793127
H 40.536036196 65.0442535953 19.1998291745
H 45.7025742513 65.0443177808 32.5435314693
H 40.5359525067 67.038759251 21.1943261719
H 45.7025294591 53.6951872764 21.1942632764
H 40.5360738409 53.6950044301 30.5488231738
H 45.7024393329 67.0385790022 30.5487958638
H 49.7909404971 55.6896863194 23.2882267766
H 36.4474876248 55.6896764192 28.4546213828
H 36.4472917254 65.044206133 23.2883649549
H 49.7909496936 65.0442130045 28.4547640213
H 38.4420374519 57.783801965 32.5431494776
H 38.4419518585 62.9502688839 19.1995222827
H 47.7965307455 57.7838169118 19.1997683591
H 47.7966327657 62.9502737236 32.5434290042
H 40.9110690982 54.054136581 28.0800576974
H 44.9806318325 67.3624531944 26.4536314784
H 45.3276379156 54.0543091822 23.6631780903
H 40.9109201919 66.6797386306 23.6631350124
H 43.7013190083 58.5056519637 18.8758910313
H 45.32750229 62.5754501877 32.184446853
H 42.5371631231 62.2282302884 18.8759438989
H 40.9109040032 58.15855097 32.1841630455
H 36.1236175824 60.9492041003 24.0103364774
H 49.4317426738 62.575183214 28.0799439523
H 36.1234114517 59.78495347 27.7327079091
H 49.4321233168 58.1586300542 23.6631148878
H 36.8065357829 58.1588439464 28.0800177862
H 50.1146622024 62.2282082907 26.4536591851
H 36.806544217 62.575477922 23.6632560672
H 50.1151227505 58.5056967698 25.2893638005
H 40.9108665171 62.5752323596 19.558867191
H 44.9805448248 60.949157942 32.8673679339
H 45.3275745406 58.1586109782 19.5588935455
H 41.2580004539 59.7847937839 32.8671671707
H 43.701393715 53.3713448924 24.0103688203
H 45.3275720362 66.6795439868 28.0799250108
H 42.537224863 53.3710744726 27.7327315833
H 42.5371525675 67.3627862371 24.0102115282
H 49.5348141977 62.6781212649 19.4560957978
H 36.3566767078 58.738830764 17.8297763696
H 36.7036801036 62.678038438 32.286898836
H 49.8816347059 58.738869523 33.9134338294
H 35.0774670283 67.1294898351 27.4997325212
H 36.7039227753 53.9513178187 23.5603363368
H 49.5349464496 53.9516489746 28.1826046014
H 51.160982605 67.1293701982 24.2434140096
H 45.4304459394 53.951311137 32.2869742257
H 41.4910141213 52.3253140201 19.1091266213
H 44.7473856558 68.4088194759 19.1092127253
H 41.4911388566 68.408667565 32.6341515233
H 45.4303734129 66.7825882111 19.4562569051
H 40.808134183 53.9516372186 19.4559971858
H 44.7475152999 53.6044935782 33.91329166
H 40.8081370358 66.7823794863 32.2872343659
H 49.8819749512 52.3253614857 27.4996884189
H 36.356637114 52.3251420019 24.2433313345
H 36.7037142851 66.7823892347 28.1827316204
H 49.5346886207 66.7824451069 23.5604268355
H 35.0774423675 61.995035741 32.6340801488
H 36.7039733387 58.0558871404 19.4559899659
H 51.1610859912 61.9951596001 19.1090917741
H 49.5345353887 58.0558016332 32.2872123337
H 41.2578523479 53.3712244206 26.4537063507
H 43.7013416304 67.3624780276 27.7327007789
H 44.9806889845 53.3713651343 25.2894595425
H 41.2579908504 67.3626910333 25.2894108901
H 44.9805018676 59.7848587353 18.8759389281
H 43.7012826812 62.2282514582 32.8674475527
H 41.257967873 60.9490260074 18.8758314784
H 42.5371709121 58.5056047602 32.8671829282
H 36.123523779 62.2284193128 25.2894892775
H 50.1146907888 60.9489625738 27.7327659786
H 36.1236372585 58.5056255057 26.4536653736
H 50.1151188491 59.7848718573 24.0101954396
H 49.8819310938 61.9951392237 17.8298559816
H 35.077623765 58.7387282678 19.1090891835
H 36.3567189612 61.9951262672 33.9132056527
H 51.1608324776 58.7387620975 32.634253571
H 36.3567144975 68.4086341666 27.4997387235
H 35.0775707594 53.6044258672 24.2431805723
H 51.1611690561 53.6045657495 27.4995490299
H 49.8819241706 68.4086544878 24.2434147823
H 44.7474341046 52.3251362377 32.6342805361
H 41.4911328924 53.6043504154 17.8298089126
H 44.747423618 67.129670698 17.8299989339
H 41.4912096032 67.1295841352 33.913424864
H 58.4147332244 49.159829627 12.5704588449
H 62.3188207695 37.0785143537 12.5702727767
H 62.3188349505 49.1599807272 4.6773199978
H 58.4147827667 37.0787487983 4.6774042977
H 64.3135285441 41.1673041306 14.6645768637
H 64.3135280543 45.0713268415 2.5833747457
H 56.4204644313 45.0713445618 14.6644755059
H 56.420481065 41.1672588726 2.5831732546
H 66.4074990193 47.0657500291 6.6716451805
H 54.3261551286 47.0656684717 10.575859986
H 66.4076185562 39.1725507358 10.5756444587
H 54.3264669359 39.1726926119 6.6716109852
H 66.4075841091 41.1667988868 12.5703999371
H 54.3262257234 45.0710440413 12.5702354734
H 66.4076040888 45.0711993741 4.6771836754
H 54.3265455165 41.1673603374 4.6772747192
H 58.4149249464 47.0659196913 14.6646014935
H 62.3190346202 47.0658204584 2.5834231048
H 62.3191136975 39.1726850816 14.6645750458
H 58.4149499625 39.1727449069 2.5831740722
H 64.3134793433 49.1599678535 6.6717126328
H 64.3133881237 37.0785568072 10.5758204336
H 56.4202795808 49.159837078 10.5758642496
H 56.4203346631 37.0786488927 6.6719715864
H 67.0387846672 40.5360662277 3.9465490816
H 53.6952799069 45.7025410495 3.9464576619
H 53.6949668232 40.5359445004 13.3011759897
H 67.0386496867 45.7023200927 13.3010298499
H 55.6896435071 49.7908824345 6.0406962422
H 55.6895554507 36.4473559214 11.2070529207
H 65.0441771569 36.4474103689 6.0406242572
H 65.0443031617 49.7911654451 11.207126282
H 57.7838660333 38.4419934565 15.2954323886
H 62.9502994261 38.4418916019 1.9519793127
H 57.783736196 47.7965535953 1.9521291745
H 62.9502742513 47.7966177808 15.2958314693
H 57.7836525033 49.791059251 3.9466261685
H 62.9502294591 36.4474872764 3.9465632799
H 57.7837738409 36.4473044335 13.3011231738
H 62.9501393295 49.7908790022 13.3010958672
H 67.0386404971 38.4419863194 6.0405267766
H 53.6951876248 38.4419764192 11.2069213794
H 53.6949917254 47.796506133 6.0406649514
H 67.0386496936 47.7965130045 11.2070640213
H 55.6897374519 40.5361019684 15.295449481
H 55.6896518585 45.7025688839 1.9518222827
H 65.0442307455 40.5361169153 1.9520683626
H 65.0443327691 45.702573727 15.2957290042
H 58.1587690982 36.806436581 10.8323577008
H 62.2283318325 50.1147531944 9.2059314784
H 62.5753379156 36.8066091822 6.4154780903
H 58.1586201919 49.4320386271 6.4154350124
H 60.9490190083 41.2579519637 1.6281910313
H 62.57520229 45.3277501912 14.936746853
H 59.7848631231 44.9805302884 1.6282438989
H 58.1586040032 40.91085097 14.9364630455
H 53.3713175824 43.7015041003 6.7626364774
H 66.6794426738 45.327483214 10.8322439523
H 53.3711114517 42.5372534665 10.4850079125
H 66.6798233168 40.9109300542 6.4154148844
H 54.0542357795 40.9111439429 10.8323177862
H 67.3623622024 44.9805082907 9.2059591851
H 54.054244217 45.3277779255 6.4155560637
H 67.3628227505 41.2579967698 8.0416638005
H 58.1585665171 45.3275323596 2.311167191
H 62.2282448213 43.701457942 15.6196679339
H 62.5752745406 40.9109109782 2.3111935489
H 58.5057004573 42.5370937839 15.6194671707
H 60.949093715 36.1236448889 6.7626688203
H 62.5752720397 49.4318439868 10.8322250108
H 59.7849248664 36.1233744726 10.4850315833
H 59.7848525675 50.1150862371 6.7625115282
H 66.7825141977 45.4304212649 2.2083957978
H 53.6043767078 41.491130764 0.5820763696
H 53.9513801002 45.430338438 15.039198836
H 67.1293347059 41.491169523 16.6657338294
H 52.3251670283 49.8817898351 10.2520325212
H 53.9516227753 36.7036178187 6.3126363368
H 66.7826464496 36.7039489746 10.9349046049
H 68.408682605 49.8816701982 6.9957140096
H 62.678145936 36.703611137 15.0392742257
H 58.7387141213 35.0776140201 1.8614266213
H 61.9950856558 51.1611194759 1.8615127253
H 58.7388388566 51.1609675616 15.3864515233
H 62.6780734129 49.5348882111 2.2085569051
H 58.055834183 36.703937222 2.2082971858
H 61.9952152999 36.3567935782 16.66559166
H 58.0558370392 49.5346794863 15.0395343659
H 67.1296749512 35.0776614892 10.2519884189
H 53.604337114 35.0774420053 6.9956313345
H 53.9514142886 49.5346892347 10.9350316204
H 66.7823886241 49.5347451069 6.3127268355
H 52.3251423641 44.747335741 15.3863801523
H 53.9516733387 40.8081871438 2.2082899693
H 68.4087859946 44.7474596001 1.8613917741
H 66.7822353887 40.8081016332 15.0395123337
H 58.5055523479 36.1235244206 9.2060063507
H 60.9490416269 50.1147780311 10.4850007789
H 62.2283889879 36.1236651343 8.0417595425
H 58.5056908504 50.1149910333 8.0417108901
H 62.2282018676 42.5371587353 1.6282389247
H 60.9489826812 44.9805514582 15.6197475527
H 58.505667873 43.7013260074 1.6281314784
H 59.7848709121 41.2579047602 15.6194829282
H 53.371223779 44.9807193128 8.0417892775
H 67.3623907888 43.7012625704 10.4850659786
H 53.3713372585 41.2579255057 9.2059653736
H 67.3628188456 42.5371718573 6.762495443
H 67.1296310938 44.7474392237 0.5821559816
H 52.325323765 41.4910282713 1.8613891835
H 53.6044189612 44.7474262672 16.6655056527
H 68.4085324776 41.4910620975 15.386553571
H 53.6044144975 51.1609341666 10.2520387235
H 52.3252707594 36.3567258672 6.9954805723
H 68.4088690561 36.3568657495 10.2518490299
H 67.1296241706 51.1609544878 6.9957147823
H 61.9951341046 35.0774362377 15.3865805361
H 58.7388328924 36.3566504154 0.5821089126
H 61.995123618 49.881970698 0.5822989374
H 58.7389096032 49.8818841318 16.665724864
H 58.4147332244 49.159829627 29.8181588449
H 62.3188207695 37.0785143537 29.8179727767
H 62.3188349505 49.1599807272 21.9250199978
H 58.4147827667 37.0787487983 21.9251043011
H 64.3135285441 41.1673041306 31.9122768603
H 64.3135280543 45.0713268415 19.8310747457
H 56.4204644313 45.0713445618 31.9121755059
H 56.420481065 41.1672588726 19.8308732546
H 66.4074990193 47.0657500291 23.9193451771
H 54.3261551286 47.0656684717 27.823559986
H 66.4076185562 39.1725507358 27.8233444587
H 54.3264669359 39.1726926119 23.9193109818
H 66.4075841091 41.1667988868 29.8180999371
H 54.3262257234 45.0710440413 29.8179354699
H 66.4076040888 45.0711993741 21.9248836754
H 54.3265455165 41.1673603374 21.9249747192
H 58.4149249464 47.0659196913 31.9123014935
H 62.3190346202 47.0658204584 19.8311231048
H 62.3191136975 39.1726850816 31.9122750424
H 58.4149499625 39.1727449069 19.8308740687
H 64.3134793433 49.1599678535 23.9194126328
H 64.3133881237 37.0785568072 27.8235204336
H 56.4202795808 49.159837078 27.8235642496
H 56.4203346631 37.0786488927 23.9196715864
H 67.0387846672 40.5360662277 21.1942490816
H 53.6952799069 45.7025410495 21.1941576619
H 53.6949668232 40.5359445004 30.5488759897
H 67.0386496867 45.7023200927 30.5487298499
H 55.6896435071 49.7908824345 23.2883962456
H 55.6895554507 36.4473559214 28.4547529207
H 65.0441771569 36.4474103689 23.2883242572
H 65.0443031617 49.7911654451 28.454826282
H 57.7838660333 38.4419934565 32.5431323886
H 62.9502994261 38.4418916019 19.1996793127
H 57.783736196 47.7965535953 19.1998291745
H 62.9502742513 47.7966177808 32.5435314693
H 57.7836525033 49.791059251 21.1943261719
H 62.9502294591 36.4474872764 21.1942632764
H 57.7837738409 36.4473044335 30.5488231738
H 62.9501393295 49.7908790022 30.5487958638
H 67.0386404971 38.4419863194 23.2882267766
H 53.6951876248 38.4419764192 28.4546213828
H 53.6949917254 47.796506133 23.2883649549
H 67.0386496936 47.7965130045 28.4547640213
H 55.6897374519 40.5361019684 32.5431494776
H 55.6896518585 45.7025688839 19.1995222827
H 65.0442307455 40.5361169153 19.1997683591
H 65.0443327691 45.702573727 32.5434290042
H 58.1587690982 36.806436581 28.0800576974
H 62.2283318325 50.1147531944 26.4536314784
H 62.5753379156 36.8066091822 23.6631780903
H 58.1586201919 49.4320386271 23.6631350124
H 60.9490190083 41.2579519637 18.8758910313
H 62.57520229 45.3277501912 32.184446853
H 59.7848631231 44.9805302884 18.8759438989
H 58.1586040032 40.91085097 32.1841630455
H 53.3713175824 43.7015041003 24.0103364774
H 66.6794426738 45.327483214 28.0799439523
H 53.3711114517 42.5372534665 27.7327079091
H 66.6798233168 40.9109300542 23.6631148878
H 54.0542357795 40.9111439429 28.0800177862
H 67.3623622024 44.9805082907 26.4536591851
H 54.054244217 45.3277779255 23.6632560672
H 67.3628227505 41.2579967698 25.2893638005
H 58.1585665171 45.3275323596 19.558867191
H 62.2282448213 43.701457942 32.8673679339
H 62.5752745406 40.9109109782 19.5588935455
H 58.5057004573 42.5370937839 32.8671671707
H 60.949093715 36.1236448889 24.0103688203
H 62.5752720397 49.4318439868 28.0799250108
H 59.7849248664 36.1233744726 27.7327315833
H 59.7848525675 50.1150862371 24.0102115282
H 66.7825141977 45.4304212649 19.4560957978
H 53.6043767078 41.491130764 17.8297763696
H 53.9513801002 45.430338438 32.286898836
H 67.1293347059 41.491169523 33.9134338294
H 52.3251670283 49.8817898351 27.4997325212
H 53.9516227753 36.7036178187 23.5603363368
H 66.7826464496 36.7039489746 28.1826046014
H 68.408682605 49.8816701982 24.2434140096
H 62.678145936 36.703611137 32.2869742257
H 58.7387141213 35.0776140201 19.1091266213
H 61.9950856558 51.1611194759 19.1092127253
H 58.7388388566 51.1609675616 32.6341515233
H 62.6780734129 49.5348882111 19.4562569051
H 58.055834183 36.703937222 19.4559971858
H 61.9952152999 36.3567935782 33.91329166
H 58.0558370392 49.5346794863 32.2872343659
H 67.1296749512 35.0776614892 27.4996884189
H 53.604337114 35.0774420053 24.2433313345
H 53.9514142886 49.5346892347 28.1827316204
H 66.7823886241 49.5347451069 23.5604268355
H 52.3251423641 44.747335741 32.6340801488
H 53.9516733387 40.8081871438 19.4559899659
H 68.4087859946 44.7474596001 19.1090917741
H 66.7822353887 40.8081016332 32.2872123337
H 58.5055523479 36.1235244206 26.4537063507
H 60.9490416269 50.1147780311 27.7327007789
H 62.2283889879 36.1236651343 25.2894595425
H 58.5056908504 50.1149910333 25.2894108901
H 62.2282018676 42.5371587353 18.8759389281
H 60.9489826812 44.9805514582 32.8674475527
H 58.505667873 43.7013260074 18.8758314784
H 59.7848709121 41.2579047602 32.8671829282
H 53.371223779 44.9807193128 25.2894892775
H 67.3623907888 43.7012625704 27.7327659786
H 53.3713372585 41.2579255057 26.4536653736
H 67.3628188456 42.5371718573 24.0101954396
H 67.1296310938 44.7474392237 17.8298559816
H 52.325323765 41.4910282713 19.1090891835
H 53.6044189612 44.7474262672 33.9132056527
H 68.4085324776 41.4910620975 32.634253571
H 53.6044144975 51.1609341666 27.4997387235
H 52.3252707594 36.3567258672 24.2431805723
H 68.4088690561 36.3568657495 27.4995490299
H 67.1296241706 51.1609544878 24.2434147823
H 61.9951341046 35.0774362377 32.6342805361
H 58.7388328924 36.3566504154 17.8298089126
H 61.995123618 49.881970698 17.8299989339
H 58.7389096032 49.8818841318 33.913424864
H 58.4147332244 66.407529627 12.5704588449
H 62.3188207695 54.3262143537 12.5702727767
H 62.3188349505 66.4076807272 4.6773199978
H 58.4147827667 54.3264487983 4.6774042977
H 64.3135285441 58.4150041306 14.6645768637
H 64.3135280543 62.3190268415 2.5833747457
H 56.4204644313 62.3190445618 14.6644755059
H 56.420481065 58.4149588761 2.5831732546
H 66.4074990193 64.3134500291 6.6716451805
H 54.3261551286 64.3133684717 10.575859986
H 66.4076185562 56.4202507358 10.5756444587
H 54.3264669359 56.4203926119 6.6716109852
H 66.4075841091 58.4144988868 12.5703999371
H 54.3262257234 62.3187440413 12.5702354734
H 66.4076040888 62.3188993741 4.6771836754
H 54.3265455165 58.415060334 4.6772747192
H 58.4149249464 64.3136196913 14.6646014935
H 62.3190346202 64.3135204584 2.5834231048
H 62.3191136975 56.4203850816 14.6645750458
H 58.4149499625 56.4204449069 2.5831740722
H 64.3134793433 66.4076678535 6.6717126328
H 64.3133881237 54.3262568038 10.5758204336
H 56.4202795808 66.407537078 10.5758642496
H 56.4203346631 54.3263488927 6.6719715864
H 67.0387846672 57.7837662277 3.9465490816
H 53.6952799069 62.9502410495 3.9464576619
H 53.6949668232 57.7836445004 13.3011759897
H 67.0386496867 62.9500200927 13.3010298499
H 55.6896435071 67.0385824345 6.0406962422
H 55.6895554507 53.6950559214 11.2070529207
H 65.0441771569 53.6951103689 6.0406242572
H 65.0443031617 67.0388654451 11.207126282
H 57.7838660333 55.6896934565 15.2954323886
H 62.9502994261 55.6895916019 1.9519793127
H 57.783736196 65.0442535953 1.9521291745
H 62.9502742513 65.0443177808 15.2958314693
H 57.7836525033 67.038759251 3.9466261685
H 62.9502294591 53.6951872764 3.9465632799
H 57.7837738409 53.6950044301 13.3011231738
H 62.9501393295 67.0385790022 13.3010958672
H 67.0386404971 55.6896863194 6.0405267766
H 53.6951876248 55.6896764192 11.2069213794
H 53.6949917254 65.044206133 6.0406649514
H 67.0386496936 65.0442130045 11.2070640213
H 55.6897374519 57.783801965 15.295449481
H 55.6896518585 62.9502688839 1.9518222827
H 65.0442307455 57.7838169118 1.9520683626
H 65.0443327691 62.9502737236 15.2957290042
H 58.1587690982 54.054136581 10.8323577008
H 62.2283318325 67.3624531944 9.2059314784
H 62.5753379156 54.0543091822 6.4154780903
H 58.1586201919 66.6797386306 6.4154350124
H 60.9490190083 58.5056519637 1.6281910313
H 62.57520229 62.5754501877 14.936746853
H 59.7848631231 62.2282302884 1.6282438989
H 58.1586040032 58.15855097 14.9364630455
H 53.3713175824 60.9492041003 6.7626364774
H 66.6794426738 62.575183214 10.8322439523
H 53.3711114517 59.78495347 10.4850079125
H 66.6798233168 58.1586300542 6.4154148844
H 54.0542357795 58.1588439464 10.8323177862
H 67.3623622024 62.2282082907 9.2059591851
H 54.054244217 62.575477922 6.4155560637
H 67.3628227505 58.5056967698 8.0416638005
H 58.1585665171 62.5752323596 2.311167191
H 62.2282448213 60.949157942 15.6196679339
H 62.5752745406 58.1586109782 2.3111935489
H 58.5057004573 59.7847937839 15.6194671707
H 60.949093715 53.3713448924 6.7626688203
H 62.5752720397 66.6795439868 10.8322250108
H 59.7849248664 53.3710744726 10.4850315833
H 59.7848525675 67.3627862371 6.7625115282
H 66.7825141977 62.6781212649 2.2083957978
H 53.6043767078 58.738830764 0.5820763696
H 53.9513801002 62.678038438 15.039198836
H 67.1293347059 58.738869523 16.6657338294
H 52.3251670283 67.1294898351 10.2520325212
H 53.9516227753 53.9513178187 6.3126363368
H 66.7826464496 53.9516489746 10.9349046049
H 68.408682605 67.1293701982 6.9957140096
H 62.678145936 53.951311137 15.0392742257
H 58.7387141213 52.3253140201 1.8614266213
H 61.9950856558 68.4088194759 1.8615127253
H 58.7388388566 68.408667565 15.3864515233
H 62.6780734129 66.7825882111 2.2085569051
H 58.055834183 53.9516372186 2.2082971858
H 61.9952152999 53.6044935782 16.66559166
H 58.0558370392 66.7823794863 15.0395343659
H 67.1296749512 52.3253614857 10.2519884189
H 53.604337114 52.3251420019 6.9956313345
H 53.9514142886 66.7823892347 10.9350316204
H 66.7823886241 66.7824451069 6.3127268355
H 52.3251423641 61.995035741 15.3863801523
H 53.9516733387 58.0558871404 2.2082899693
H 68.4087859946 61.9951596001 1.8613917741
H 66.7822353887 58.0558016332 15.0395123337
H 58.5055523479 53.3712244206 9.2060063507
H 60.9490416269 67.3624780276 10.4850007789
H 62.2283889879 53.3713651343 8.0417595425
H 58.5056908504 67.3626910333 8.0417108901
H 62.2282018676 59.7848587353 1.6282389247
H 60.9489826812 62.2282514582 15.6197475527
H 58.505667873 60.9490260074 1.6281314784
H 59.7848709121 58.5056047602 15.6194829282
H 53.371223779 62.2284193128 8.0417892775
H 67.3623907888 60.9489625738 10.4850659786
H 53.3713372585 58.5056255057 9.2059653736
H 67.3628188456 59.7848718573 6.762495443
H 67.1296310938 61.9951392237 0.5821559816
H 52.325323765 58.7387282678 1.8613891835
H 53.6044189612 61.9951262672 16.6655056527
H 68.4085324776 58.7387620975 15.386553571
H 53.6044144975 68.4086341666 10.2520387235
H 52.3252707594 53.6044258672 6.9954805723
H 68.4088690561 53.6045657495 10.2518490299
H 67.1296241706 68.4086544878 6.9957147823
H 61.9951341046 52.3251362377 15.3865805361
H 58.7388328924 53.6043504154 0.5821089126
H 61.995123618 67.129670698 0.5822989374
H 58.7389096032 67.1295841352 16.665724864
H 58.4147332244 66.407529627 29.8181588449
H 62.3188207695 54.3262143537 29.8179727767
H 62.3188349505 66.4076807272 21.9250199978
H 58.4147827667 54.3264487983 21.9251043011
H 64.3135285441 58.4150041306 31.9122768603
H 64.3135280543 62.3190268415 19.8310747457
H 56.4204644313 62.3190445618 31.9121755059
H 56.420481065 58.4149588761 19.8308732546
H 66.4074990193 64.3134500291 23.9193451771
H 54.3261551286 64.3133684717 27.823559986
H 66.4076185562 56.4202507358 27.8233444587
H 54.3264669359 56.4203926119 23.9193109818
H 66.4075841091 58.4144988868 29.8180999371
H 54.3262257234 62.3187440413 29.8179354699
H 66.4076040888 62.3188993741 21.9248836754
H 54.3265455165 58.415060334 21.9249747192
H 58.4149249464 64.3136196913 31.9123014935
H 62.3190346202 64.3135204584 19.8311231048
H 62.3191136975 56.4203850816 31.9122750424
H 58.4149499625 56.4204449069 19.8308740687
H 64.3134793433 66.4076678535 23.9194126328
H 64.3133881237 54.3262568038 27.8235204336
H 56.4202795808 66.407537078 27.8235642496
H 56.4203346631 54.3263488927 23.9196715864
H 67.0387846672 57.7837662277 21.1942490816
H 53.6952799069 62.9502410495 21.1941576619
H 53.6949668232 57.7836445004 30.5488759897
H 67.0386496867 62.9500200927 30.5487298499
H 55.6896435071 67.0385824345 23.2883962456
H 55.6895554507 53.6950559214 28.4547529207
H 65.0441771569 53.6951103689 23.2883242572
H 65.0443031617 67.0388654451 28.454826282
H 57.7838660333 55.6896934565 32.5431323886
H 62.9502994261 55.6895916019 19.1996793127
H 57.783736196 65.0442535953 19.1998291745
H 62.9502742513 65.0443177808 32.5435314693
H 57.7836525033 67.038759251 21.1943261719
H 62.9502294591 53.6951872764 21.1942632764
H 57.7837738409 53.6950044301 30.5488231738
H 62.9501393295 67.0385790022 30.5487958638
H 67.0386404971 55.6896863194 23.2882267766
H 53.6951876248 55.6896764192 28.4546213828
H 53.6949917254 65.044206133 23.2883649549
H 67.0386496936 65.0442130045 28.4547640213
H 55.6897374519 57.783801965 32.5431494776
H 55.6896518585 62.9502688839 19.1995222827
H 65.0442307455 57.7838169118 19.1997683591
H 65.0443327691 62.9502737236 32.5434290042
H 58.1587690982 54.054136581 28.0800576974
H 62.2283318325 67.3624531944 26.4536314784
H 62.5753379156 54.0543091822 23.6631780903
H 58.1586201919 66.6797386306 23.6631350124
H 60.9490190083 58.5056519637 18.8758910313
H 62.57520229 62.5754501877 32.184446853
H 59.7848631231 62.2282302884 18.8759438989
H 58.1586040032 58.15855097 32.1841630455
H 53.3713175824 60.9492041003 24.0103364774
H 66.6794426738 62.575183214 28.0799439523
H 53.3711114517 59.78495347 27.7327079091
H 66.6798233168 58.1586300542 23.6631148878
H 54.0542357795 58.1588439464 28.0800177862
H 67.3623622024 62.2282082907 26.4536591851
H 54.054244217 62.575477922 23.6632560672
H 67.3628227505 58.5056967698 25.2893638005
H 58.1585665171 62.5752323596 19.558867191
H 62.2282448213 60.949157942 32.8673679339
H 62.5752745406 58.1586109782 19.5588935455
H 58.5057004573 59.7847937839 32.8671671707
H 60.949093715 53.3713448924 24.0103688203
H 62.5752720397 66.6795439868 28.0799250108
H 59.7849248664 53.3710744726 27.7327315833
H 59.7848525675 67.3627862371 24.0102115282
H 66.7825141977 62.6781212649 19.4560957978
H 53.6043767078 58.738830764 17.8297763696
H 53.9513801002 62.678038438 32.286898836
H 67.1293347059 58.738869523 33.9134338294
H 52.3251670283 67.1294898351 27.4997325212
H 53.9516227753 53.9513178187 23.5603363368
H 66.7826464496 53.9516489746 28.1826046014
H 68.408682605 67.1293701982 24.2434140096
H 62.678145936 53.951311137 32.2869742257
H 58.7387141213 52.3253140201 19.1091266213
H 61.9950856558 68.4088194759 19.1092127253
H 58.7388388566 68.408667565 32.6341515233
H 62.6780734129 66.7825882111 19.4562569051
H 58.055834183 53.9516372186 19.4559971858
H 61.9952152999 53.6044935782 33.91329166
H 58.0558370392 66.7823794863 32.2872343659
H 67.1296749512 52.3253614857 27.4996884189
H 53.604337114 52.3251420019 24.2433313345
H 53.9514142886 66.7823892347 28.1827316204
H 66.7823886241 66.7824451069 23.5604268355
H 52.3251423641 61.995035741 32.6340801488
H 53.9516733387 58.0558871404 19.4559899659
H 68.4087859946 61.9951596001 19.1090917741
H 66.7822353887 58.0558016332 32.2872123337
H 58.5055523479 53.3712244206 26.4537063507
H 60.9490416269 67.3624780276 27.7327007789
H 62.2283889879 53.3713651343 25.2894595425
H 58.5056908504 67.3626910333 25.2894108901
H 62.2282018676 59.7848587353 18.8759389281
H 60.9489826812 62.2282514582 32.8674475527
H 58.505667873 60.9490260074 18.8758314784
H 59.7848709121 58.5056047602 32.8671829282
H 53.371223779 62.2284193128 25.2894892775
H 67.3623907888 60.9489625738 27.7327659786
H 53.3713372585 58.5056255057 26.4536653736
H 67.3628188456 59.7848718573 24.0101954396
H 67.1296310938 61.9951392237 17.8298559816
H 52.325323765 58.7387282678 19.1090891835
H 53.6044189612 61.9951262672 33.9132056527
H 68.4085324776 58.7387620975 32.634253571
H 53.6044144975 68.4086341666 27.4997387235
H 52.3252707594 53.6044258672 24.2431805723
H 68.4088690561 53.6045657495 27.4995490299
H 67.1296241706 68.4086544878 24.2434147823
H 61.9951341046 52.3251362377 32.6342805361
H 58.7388328924 53.6043504154 17.8298089126
H 61.995123618 67.129670698 17.8299989339
H 58.7389096032 67.1295841352 33.913424864
C 40.9990575671 34.615808667 10.7440318807
C 45.2393990929 51.6224738705 10.7439677986
C 45.239438804 34.6159870669 6.5036837008
C 40.9990289463 51.6226719466 6.5036861397
C 45.23942424 40.9991147122 0.1205611436
C 45.2393972439 45.2394828615 17.1273806381
C 40.9991191035 45.2394424536 0.1205345476
C 40.9990800133 40.9990293982 17.1271080244
C 34.6158916595 45.239484024 6.5036494193
C 51.6224004781 45.2393046479 10.7439990204
C 34.6158797896 40.9990418027 10.7439429068
C 51.6227768333 40.9991243157 6.5035795592
C 49.6229890349 43.2397962347 2.1202198705
C 36.6156474358 42.9988051508 2.1201122552
C 36.6155254083 43.2397171747 15.127461909
C 49.6228042051 42.9987333865 15.127587148
C 36.615541121 49.6228365445 8.7443966452
C 36.6155785657 36.6155266605 8.5032633057
C 49.6229932537 36.6156508508 8.7442691122
C 49.6228957628 49.6229013062 8.5033629732
C 43.2398019368 36.6154940658 15.127522138
C 42.9987814214 36.6156272042 2.1201932332
C 43.2397223421 49.6230196875 2.1203183894
C 42.9987962544 49.6229011199 15.127619177
C 40.8876740834 49.934671166 11.8414446655
C 45.3505832622 36.303638102 11.8413395787
C 45.3505965877 49.9348464096 5.4062710437
C 40.8877053638 36.3038588208 5.4063592933
C 46.3368538758 40.8878696999 15.4394297621
C 46.336841523 45.3507389917 1.8085202295
C 39.9017302481 45.3507369806 15.4393682361
C 39.9017159636 40.887824028 1.8082826493
C 49.9346810145 46.3367819598 6.392288637
C 36.3035881664 46.3366816127 10.8552516045
C 49.9347750903 39.9015136308 10.855127421
C 36.303925973 39.9017049665 6.3922555456
C 49.9347321505 40.8875385648 11.8413510691
C 36.3036092224 45.3505171241 11.8413360361
C 49.9347548208 45.3506530153 5.4061663846
C 36.3039546973 40.8879003387 5.4062009973
C 40.8878245351 46.3369068193 15.4394310591
C 45.3507206815 46.336862917 1.8085418857
C 45.3507638007 39.9016893193 15.4394308694
C 40.8878287021 39.9016870047 1.8082874408
C 46.3367873963 49.9348276475 6.392346848
C 46.3367311722 36.3036698516 10.8552333564
C 39.901568413 49.9346922565 10.8552859032
C 39.9015965233 36.3038000303 6.392507224
C 49.5116935834 41.310934311 3.2175792392
C 36.7269447259 44.9276797136 3.2174732935
C 36.7267507065 41.3108520808 14.0300811118
C 49.5115642291 44.9275178888 14.0300759444
C 37.7129306766 49.5115270465 6.8155437213
C 37.7129211248 36.7267836531 10.4321527533
C 48.5254768275 36.7268484113 6.8154641646
C 48.5255248382 49.5117071574 10.4322334759
C 41.3109915837 37.7129430811 15.0161212617
C 44.9276905244 37.7129712397 2.2314247164
C 41.3108869695 48.5255515066 2.231544957
C 44.9276703619 48.5255271494 15.0163659686
C 41.3108381861 49.5116780915 3.217666209
C 44.9276561498 36.7268840002 3.2175901535
C 41.3109662985 36.7267534282 14.0300709322
C 44.9276049448 49.5115483405 14.0301345452
C 49.5115900903 37.713004683 6.8154021108
C 36.7268608779 37.7129694528 10.4320822136
C 36.7267505133 48.5254365886 6.8155478194
C 49.5115764371 48.5255096878 10.4322134376
C 37.7129830302 41.310913631 15.0161165116
C 37.7130312755 44.9276801551 2.2312946308
C 48.5255254177 41.3109718868 2.2314791777
C 48.5255186394 44.9276413375 15.0162919725
C 41.4489851363 35.9890083907 10.2941685385
C 44.789558352 50.249251173 10.2941015553
C 44.7896094121 35.9891931411 6.9535832287
C 41.4489491266 50.2494722091 6.9535166733
C 44.7895215247 41.4489679576 1.4937631888
C 44.7894989613 44.7896296506 15.7541689377
C 41.4489665019 44.7895249432 1.4937394525
C 41.4489661363 41.4488976387 15.7539018605
C 35.9891162647 44.7896927461 6.9535949606
C 50.2491604052 44.7894625755 10.2941377169
C 35.9890826351 41.4490278037 10.2941237842
C 50.2495635874 41.4489833771 6.9534696043
C 50.0728896736 44.6130002944 1.6703597122
C 36.1657957979 41.6255701935 1.67029048
C 36.1656599688 44.612927823 15.577326669
C 50.0726292643 41.6255371159 15.5775307852
C 36.1656779754 50.0727483321 10.1175926433
C 36.1657427681 36.1656510517 7.130041843
C 50.0729565463 36.1658497521 10.1174766732
C 50.072798892 50.0727469454 7.1301586376
C 44.613014503 36.1656515277 15.5774314557
C 41.6255471333 36.1657751455 1.670327497
C 44.6129436564 50.0729345176 1.6704922849
C 41.6255936987 50.0727913065 15.5775098016
C 40.9990575671 34.615808667 27.9917318773
C 45.2393990929 51.6224738705 27.9916677986
C 45.239438804 34.6159870669 23.7513837008
C 40.9990289463 51.6226719466 23.7513861397
C 45.23942424 40.9991147122 17.368261147
C 45.2393972439 45.2394828615 34.3750806416
C 40.9991191035 45.2394424536 17.3682345476
C 40.9990800133 40.9990293982 34.3748080244
C 34.6158916595 45.239484024 23.7513494193
C 51.6224004781 45.2393046479 27.9916990204
C 34.6158797896 40.9990418027 27.9916429068
C 51.6227768333 40.9991243157 23.7512795558
C 49.6229890349 43.2397962347 19.3679198705
C 36.6156474358 42.9988051508 19.3678122552
C 36.6155254083 43.2397171747 32.375161909
C 49.6228042051 42.9987333865 32.375287148
C 36.615541121 49.6228365445 25.9920966452
C 36.6155785657 36.6155266605 25.7509633057
C 49.6229932537 36.6156508508 25.9919691122
C 49.6228957628 49.6229013062 25.7510629732
C 43.2398019368 36.6154940658 32.3752221414
C 42.9987814214 36.6156272042 19.3678932366
C 43.2397223421 49.6230196875 19.3680183894
C 42.9987962544 49.6229011199 32.375319177
C 40.8876740834 49.934671166 29.0891446655
C 45.3505832622 36.303638102 29.0890395753
C 45.3505965877 49.9348464096 22.6539710437
C 40.8877053638 36.3038588208 22.6540592933
C 46.3368538758 40.8878696999 32.6871297621
C 46.336841523 45.3507389917 19.0562202295
C 39.9017302481 45.3507369806 32.6870682361
C 39.9017159636 40.887824028 19.0559826493
C 49.9346810145 46.3367819598 23.639988637
C 36.3035881664 46.3366816127 28.102951601
C 49.9347750903 39.9015136308 28.102827421
C 36.303925973 39.9017049665 23.6399555456
C 49.9347321505 40.8875385648 29.0890510657
C 36.3036092224 45.3505171241 29.0890360361
C 49.9347548208 45.3506530153 22.6538663812
C 36.3039546973 40.8879003387 22.6539009939
C 40.8878245351 46.3369068193 32.6871310591
C 45.3507206815 46.336862917 19.0562418857
C 45.3507638007 39.9016893193 32.6871308694
C 40.8878287021 39.9016870047 19.0559874408
C 46.3367873963 49.9348276475 23.640046848
C 46.3367311722 36.3036698516 28.1029333564
C 39.901568413 49.9346922565 28.1029859032
C 39.9015965233 36.3038000303 23.640207224
C 49.5116935834 41.310934311 20.4652792357
C 36.7269447259 44.9276797136 20.4651732935
C 36.7267507065 41.3108520808 31.2777811118
C 49.5115642291 44.9275178888 31.2777759444
C 37.7129306766 49.5115270465 24.0632437213
C 37.7129211248 36.7267836531 27.6798527533
C 48.5254768275 36.7268484113 24.0631641646
C 48.5255248382 49.5117071574 27.6799334759
C 41.3109915837 37.7129430811 32.2638212617
C 44.9276905244 37.7129712397 19.4791247164
C 41.3108869695 48.5255515066 19.479244957
C 44.9276703619 48.5255271494 32.2640659686
C 41.3108381861 49.5116780915 20.4653662124
C 44.9276561498 36.7268840002 20.4652901535
C 41.3109662985 36.7267534282 31.2777709288
C 44.9276049448 49.5115483405 31.2778345452
C 49.5115900903 37.713004683 24.0631021108
C 36.7268608779 37.7129694528 27.6797822136
C 36.7267505133 48.5254365886 24.0632478194
C 49.5115764371 48.5255096878 27.6799134341
C 37.7129830302 41.310913631 32.2638165116
C 37.7130312755 44.9276801551 19.4789946308
C 48.5255254177 41.3109718868 19.4791791777
C 48.5255186394 44.9276413375 32.2639919725
C 41.4489851363 35.9890083907 27.541868542
C 44.789558352 50.249251173 27.5418015553
C 44.7896094121 35.9891931411 24.2012832253
C 41.4489491266 50.2494722091 24.2012166733
C 44.7895215247 41.4489679576 18.7414631888
C 44.7894989613 44.7896296506 33.0018689377
C 41.4489665019 44.7895249432 18.7414394525
C 41.4489661363 41.4488976387 33.0016018605
C 35.9891162647 44.7896927461 24.2012949606
C 50.2491604052 44.7894625755 27.5418377169
C 35.9890826351 41.4490278037 27.5418237842
C 50.2495635874 41.4489833771 24.2011696043
C 50.0728896736 44.6130002944 18.9180597088
C 36.1657957979 41.6255701935 18.91799048
C 36.1656599688 44.612927823 32.825026669
C 50.0726292643 41.6255371159 32.8252307886
C 36.1656779754 50.0727483321 27.3652926433
C 36.1657427681 36.1656510517 24.377741843
C 50.0729565463 36.1658497521 27.3651766732
C 50.072798892 50.0727469454 24.3778586376
C 44.613014503 36.1656515277 32.8251314591
C 41.6255471333 36.1657751455 18.9180274935
C 44.6129436564 50.0729345176 18.9181922884
C 41.6255936987 50.0727913065 32.8252098016
C 40.9990575671 51.863508667 10.7440318807
C 45.2393990929 68.8701738705 10.7439677986
C 45.239438804 51.8636870669 6.5036837008
C 40.9990289463 68.8703719466 6.5036861397
C 45.23942424 58.2468147122 0.1205611436
C 45.2393972439 62.4871828615 17.1273806381
C 40.9991191035 62.4871424536 0.1205345476
C 40.9990800133 58.2467293982 17.1271080244
C 34.6158916595 62.487184024 6.5036494193
C 51.6224004781 62.4870046479 10.7439990204
C 34.6158797896 58.2467418027 10.7439429068
C 51.6227768333 58.2468243157 6.5035795592
C 49.6229890349 60.4874962347 2.1202198705
C 36.6156474358 60.2465051508 2.1201122552
C 36.6155254083 60.4874171747 15.127461909
C 49.6228042051 60.24643339 15.127587148
C 36.615541121 66.8705365445 8.7443966452
C 36.6155785657 53.8632266605 8.5032633057
C 49.6229932537 53.8633508508 8.7442691122
C 49.6228957628 66.8706013097 8.5033629732
C 43.2398019368 53.8631940658 15.127522138
C 42.9987814214 53.8633272042 2.1201932332
C 43.2397223421 66.8707196875 2.1203183894
C 42.9987962544 66.8706011199 15.127619177
C 40.8876740834 67.182371166 11.8414446655
C 45.3505832622 53.5513381054 11.8413395787
C 45.3505965877 67.1825464096 5.4062710437
C 40.8877053638 53.5515588243 5.4063592933
C 46.3368538758 58.1355696999 15.4394297621
C 46.336841523 62.5984389917 1.8085202295
C 39.9017302481 62.5984369806 15.4393682361
C 39.9017159636 58.1355240245 1.8082826493
C 49.9346810145 63.5844819598 6.392288637
C 36.3035881664 63.5843816092 10.8552516045
C 49.9347750903 57.1492136308 10.855127421
C 36.303925973 57.1494049665 6.3922555456
C 49.9347321505 58.1352385648 11.8413510691
C 36.3036092224 62.5982171241 11.8413360361
C 49.9347548208 62.5983530153 5.4061663846
C 36.3039546973 58.1356003387 5.4062009973
C 40.8878245351 63.5846068193 15.4394310591
C 45.3507206815 63.584562917 1.8085418857
C 45.3507638007 57.1493893193 15.4394308694
C 40.8878287021 57.1493870047 1.8082874408
C 46.3367873963 67.1825276475 6.392346848
C 46.3367311722 53.5513698516 10.8552333564
C 39.901568413 67.1823922565 10.8552859032
C 39.9015965233 53.5515000303 6.392507224
C 49.5116935834 58.558634311 3.2175792392
C 36.7269447259 62.1753797136 3.2174732935
C 36.7267507065 58.5585520808 14.0300811118
C 49.5115642291 62.1752178888 14.0300759444
C 37.7129306766 66.7592270465 6.8155437213
C 37.7129211248 53.9744836531 10.4321527533
C 48.5254768275 53.9745484113 6.8154641646
C 48.5255248382 66.7594071574 10.4322334759
C 41.3109915837 54.9606430811 15.0161212617
C 44.9276905244 54.9606712397 2.2314247164
C 41.3108869695 65.7732515066 2.231544957
C 44.9276703619 65.7732271528 15.0163659686
C 41.3108381861 66.7593780915 3.217666209
C 44.9276561498 53.9745840002 3.2175901535
C 41.3109662985 53.9744534282 14.0300709322
C 44.9276049448 66.7592483371 14.0301345452
C 49.5115900903 54.960704683 6.8154021108
C 36.7268608779 54.9606694528 10.4320822136
C 36.7267505133 65.7731365886 6.8155478194
C 49.5115764371 65.7732096878 10.4322134376
C 37.7129830302 58.558613631 15.0161165116
C 37.7130312755 62.1753801551 2.2312946308
C 48.5255254177 58.5586718868 2.2314791777
C 48.5255186394 62.175341334 15.0162919725
C 41.4489851363 53.2367083907 10.2941685385
C 44.789558352 67.4969511695 10.2941015553
C 44.7896094121 53.2368931411 6.9535832287
C 41.4489491266 67.4971722091 6.9535166733
C 44.7895215247 58.6966679576 1.4937631888
C 44.7894989613 62.0373296506 15.7541689377
C 41.4489665019 62.0372249432 1.4937394525
C 41.4489661363 58.6965976387 15.7539018605
C 35.9891162647 62.0373927461 6.9535949606
C 50.2491604052 62.0371625755 10.2941377169
C 35.9890826351 58.6967278037 10.2941237842
C 50.2495635874 58.6966833771 6.9534696043
C 50.0728896736 61.8607002944 1.6703597122
C 36.1657957979 58.8732701935 1.67029048
C 36.1656599688 61.8606278264 15.577326669
C 50.0726292643 58.8732371159 15.5775307852
C 36.1656779754 67.3204483321 10.1175926433
C 36.1657427681 53.4133510517 7.130041843
C 50.0729565463 53.4135497556 10.1174766732
C 50.072798892 67.3204469454 7.1301586376
C 44.613014503 53.4133515277 15.5774314557
C 41.6255471333 53.4134751455 1.670327497
C 44.6129436564 67.320634521 1.6704922849
C 41.6255936987 67.3204913065 15.5775098016
C 40.9990575671 51.863508667 27.9917318773
C 45.2393990929 68.8701738705 27.9916677986
C 45.239438804 51.8636870669 23.7513837008
C 40.9990289463 68.8703719466 23.7513861397
C 45.23942424 58.2468147122 17.368261147
C 45.2393972439 62.4871828615 34.3750806416
C 40.9991191035 62.4871424536 17.3682345476
C 40.9990800133 58.2467293982 34.3748080244
C 34.6158916595 62.487184024 23.7513494193
C 51.6224004781 62.4870046479 27.9916990204
C 34.6158797896 58.2467418027 27.9916429068
C 51.6227768333 58.2468243157 23.7512795558
C 49.6229890349 60.4874962347 19.3679198705
C 36.6156474358 60.2465051508 19.3678122552
C 36.6155254083 60.4874171747 32.375161909
C 49.6228042051 60.24643339 32.375287148
C 36.615541121 66.8705365445 25.9920966452
C 36.6155785657 53.8632266605 25.7509633057
C 49.6229932537 53.8633508508 25.9919691122
C 49.6228957628 66.8706013097 25.7510629732
C 43.2398019368 53.8631940658 32.3752221414
C 42.9987814214 53.8633272042 19.3678932366
C 43.2397223421 66.8707196875 19.3680183894
C 42.9987962544 66.8706011199 32.375319177
C 40.8876740834 67.182371166 29.0891446655
C 45.3505832622 53.5513381054 29.0890395753
C 45.3505965877 67.1825464096 22.6539710437
C 40.8877053638 53.5515588243 22.6540592933
C 46.3368538758 58.1355696999 32.6871297621
C 46.336841523 62.5984389917 19.0562202295
C 39.9017302481 62.5984369806 32.6870682361
C 39.9017159636 58.1355240245 19.0559826493
C 49.9346810145 63.5844819598 23.639988637
C 36.3035881664 63.5843816092 28.102951601
C 49.9347750903 57.1492136308 28.102827421
C 36.303925973 57.1494049665 23.6399555456
C 49.9347321505 58.1352385648 29.0890510657
C 36.3036092224 62.5982171241 29.0890360361
C 49.9347548208 62.5983530153 22.6538663812
C 36.3039546973 58.1356003387 22.6539009939
C 40.8878245351 63.5846068193 32.6871310591
C 45.3507206815 63.584562917 19.0562418857
C 45.3507638007 57.1493893193 32.6871308694
C 40.8878287021 57.1493870047 19.0559874408
C 46.3367873963 67.1825276475 23.640046848
C 46.3367311722 53.5513698516 28.1029333564
C 39.901568413 67.1823922565 28.1029859032
C 39.9015965233 53.5515000303 23.640207224
C 49.5116935834 58.558634311 20.4652792357
C 36.7269447259 62.1753797136 20.4651732935
C 36.7267507065 58.5585520808 31.2777811118
C 49.5115642291 62.1752178888 31.2777759444
C 37.7129306766 66.7592270465 24.0632437213
C 37.7129211248 53.9744836531 27.6798527533
C 48.5254768275 53.9745484113 24.0631641646
C 48.5255248382 66.7594071574 27.6799334759
C 41.3109915837 54.9606430811 32.2638212617
C 44.9276905244 54.9606712397 19.4791247164
C 41.3108869695 65.7732515066 19.479244957
C 44.9276703619 65.7732271528 32.2640659686
C 41.3108381861 66.7593780915 20.4653662124
C 44.9276561498 53.9745840002 20.4652901535
C 41.3109662985 53.9744534282 31.2777709288
C 44.9276049448 66.7592483371 31.2778345452
C 49.5115900903 54.960704683 24.0631021108
C 36.7268608779 54.9606694528 27.6797822136
C 36.7267505133 65.7731365886 24.0632478194
C 49.5115764371 65.7732096878 27.6799134341
C 37.7129830302 58.558613631 32.2638165116
C 37.7130312755 62.1753801551 19.4789946308
C 48.5255254177 58.5586718868 19.4791791777
C 48.5255186394 62.175341334 32.2639919725
C 41.4489851363 53.2367083907 27.541868542
C 44.789558352 67.4969511695 27.5418015553
C 44.7896094121 53.2368931411 24.2012832253
C 41.4489491266 67.4971722091 24.2012166733
C 44.7895215247 58.6966679576 18.7414631888
C 44.7894989613 62.0373296506 33.0018689377
C 41.4489665019 62.0372249432 18.7414394525
C 41.4489661363 58.6965976387 33.0016018605
C 35.9891162647 62.0373927461 24.2012949606
C 50.2491604052 62.0371625755 27.5418377169
C 35.9890826351 58.6967278037 27.5418237842
C 50.2495635874 58.6966833771 24.2011696043
C 50.0728896736 61.8607002944 18.9180597088
C 36.1657957979 58.8732701935 18.91799048
C 36.1656599688 61.8606278264 32.825026669
C 50.0726292643 58.8732371159 32.8252307886
C 36.1656779754 67.3204483321 27.3652926433
C 36.1657427681 53.4133510517 24.377741843
C 50.0729565463 53.4135497556 27.3651766732
C 50.072798892 67.3204469454 24.3778586376
C 44.613014503 53.4133515277 32.8251314591
C 41.6255471333 53.4134751455 18.9180274935
C 44.6129436564 67.320634521 18.9181922884
C 41.6255936987 67.3204913065 32.8252098016
C 58.2467575671 34.615808667 10.7440318807
C 62.4870990929 51.6224738705 10.7439677986
C 62.487138804 34.6159870669 6.5036837008
C 58.2467289463 51.6226719466 6.5036861397
C 62.48712424 40.9991147122 0.1205611436
C 62.4870972405 45.2394828615 17.1273806381
C 58.2468191035 45.2394424536 0.1205345476
C 58.2467800133 40.9990293982 17.1271080244
C 51.8635916595 45.239484024 6.5036494193
C 68.8701004781 45.2393046479 10.7439990204
C 51.8635797862 40.9990418027 10.7439429068
C 68.8704768333 40.9991243157 6.5035795592
C 66.8706890349 43.2397962347 2.1202198705
C 53.8633474358 42.9988051508 2.1201122552
C 53.8632254083 43.2397171747 15.127461909
C 66.8705042051 42.9987333865 15.127587148
C 53.863241121 49.6228365445 8.7443966452
C 53.8632785657 36.6155266605 8.5032633057
C 66.8706932537 36.6156508508 8.7442691122
C 66.8705957628 49.6229013062 8.5033629732
C 60.4875019368 36.6154940658 15.127522138
C 60.2464814214 36.6156272042 2.1201932332
C 60.4874223421 49.6230196875 2.1203183894
C 60.2464962544 49.6229011199 15.127619177
C 58.1353740834 49.934671166 11.8414446655
C 62.5982832622 36.303638102 11.8413395787
C 62.5982965912 49.9348464096 5.4062710437
C 58.1354053638 36.3038588208 5.4063592933
C 63.5845538792 40.8878696999 15.4394297621
C 63.584541523 45.3507389917 1.8085202295
C 57.1494302481 45.3507369806 15.4393682361
C 57.1494159636 40.887824028 1.8082826493
C 67.1823810179 46.3367819598 6.392288637
C 53.5512881664 46.3366816127 10.8552516045
C 67.1824750869 39.9015136308 10.855127421
C 53.551625973 39.9017049665 6.3922555456
C 67.1824321505 40.8875385648 11.8413510691
C 53.5513092224 45.3505171241 11.8413360361
C 67.1824548208 45.3506530153 5.4061663846
C 53.5516546973 40.8879003387 5.4062009973
C 58.1355245351 46.3369068193 15.4394310591
C 62.5984206815 46.336862917 1.8085418857
C 62.5984638042 39.9016893193 15.4394308694
C 58.1355286987 39.9016870047 1.8082874408
C 63.5844873928 49.9348276475 6.392346848
C 63.5844311757 36.3036698516 10.8552333564
C 57.149268413 49.9346922565 10.8552859032
C 57.1492965233 36.3038000303 6.392507224
C 66.7593935834 41.310934311 3.2175792392
C 53.9746447259 44.9276797136 3.2174732935
C 53.9744507065 41.3108520808 14.0300811118
C 66.7592642291 44.9275178888 14.0300759444
C 54.9606306766 49.5115270465 6.8155437213
C 54.9606211248 36.7267836531 10.4321527533
C 65.7731768275 36.7268484113 6.8154641646
C 65.7732248416 49.5117071574 10.4322334759
C 58.5586915837 37.7129430811 15.0161212617
C 62.1753905244 37.7129712397 2.2314247164
C 58.558586966 48.5255515066 2.231544957
C 62.1753703619 48.5255271494 15.0163659686
C 58.5585381861 49.5116780915 3.217666209
C 62.1753561498 36.7268840002 3.2175901535
C 58.5586662985 36.7267534282 14.0300709322
C 62.1753049448 49.5115483405 14.0301345452
C 66.7592900903 37.713004683 6.8154021108
C 53.9745608779 37.7129694528 10.4320822136
C 53.9744505133 48.5254365886 6.8155478194
C 66.7592764371 48.5255096878 10.4322134376
C 54.9606830302 41.310913631 15.0161165116
C 54.9607312755 44.9276801551 2.2312946308
C 65.7732254177 41.3109718868 2.2314791777
C 65.7732186428 44.9276413375 15.0162919725
C 58.6966851363 35.9890083907 10.2941685385
C 62.037258352 50.249251173 10.2941015553
C 62.0373094121 35.9891931411 6.9535832287
C 58.6966491266 50.2494722091 6.9535166733
C 62.0372215247 41.4489679576 1.4937631888
C 62.0371989613 44.7896296506 15.7541689377
C 58.6966665019 44.7895249432 1.4937394525
C 58.6966661363 41.4488976387 15.7539018605
C 53.2368162647 44.7896927461 6.9535949606
C 67.4968604052 44.7894625755 10.2941377169
C 53.2367826351 41.4490278037 10.2941237842
C 67.4972635874 41.4489833771 6.9534696043
C 67.3205896736 44.6130002944 1.6703597122
C 53.4134957979 41.6255701935 1.67029048
C 53.4133599688 44.612927823 15.577326669
C 67.3203292643 41.6255371159 15.5775307852
C 53.4133779754 50.0727483321 10.1175926433
C 53.4134427681 36.1656510517 7.130041843
C 67.3206565463 36.1658497521 10.1174766732
C 67.320498892 50.0727469454 7.1301586376
C 61.860714503 36.1656515277 15.5774314557
C 58.8732471333 36.1657751455 1.670327497
C 61.8606436564 50.0729345176 1.6704922849
C 58.8732936952 50.0727913065 15.5775098016
C 58.2467575671 34.615808667 27.9917318773
C 62.4870990929 51.6224738705 27.9916677986
C 62.487138804 34.6159870669 23.7513837008
C 58.2467289463 51.6226719466 23.7513861397
C 62.48712424 40.9991147122 17.368261147
C 62.4870972405 45.2394828615 34.3750806416
C 58.2468191035 45.2394424536 17.3682345476
C 58.2467800133 40.9990293982 34.3748080244
C 51.8635916595 45.239484024 23.7513494193
C 68.8701004781 45.2393046479 27.9916990204
C 51.8635797862 40.9990418027 27.9916429068
C 68.8704768333 40.9991243157 23.7512795558
C 66.8706890349 43.2397962347 19.3679198705
C 53.8633474358 42.9988051508 19.3678122552
C 53.8632254083 43.2397171747 32.375161909
C 66.8705042051 42.9987333865 32.375287148
C 53.863241121 49.6228365445 25.9920966452
C 53.8632785657 36.6155266605 25.7509633057
C 66.8706932537 36.6156508508 25.9919691122
C 66.8705957628 49.6229013062 25.7510629732
C 60.4875019368 36.6154940658 32.3752221414
C 60.2464814214 36.6156272042 19.3678932366
C 60.4874223421 49.6230196875 19.3680183894
C 60.2464962544 49.6229011199 32.375319177
C 58.1353740834 49.934671166 29.0891446655
C 62.5982832622 36.303638102 29.0890395753
C 62.5982965912 49.9348464096 22.6539710437
C 58.1354053638 36.3038588208 22.6540592933
C 63.5845538792 40.8878696999 32.6871297621
C 63.584541523 45.3507389917 19.0562202295
C 57.1494302481 45.3507369806 32.6870682361
C 57.1494159636 40.887824028 19.0559826493
C 67.1823810179 46.3367819598 23.639988637
C 53.5512881664 46.3366816127 28.102951601
C 67.1824750869 39.9015136308 28.102827421
C 53.551625973 39.9017049665 23.6399555456
C 67.1824321505 40.8875385648 29.0890510657
C 53.5513092224 45.3505171241 29.0890360361
C 67.1824548208 45.3506530153 22.6538663812
C 53.5516546973 40.8879003387 22.6539009939
C 58.1355245351 46.3369068193 32.6871310591
C 62.5984206815 46.336862917 19.0562418857
C 62.5984638042 39.9016893193 32.6871308694
C 58.1355286987 39.9016870047 19.0559874408
C 63.5844873928 49.9348276475 23.640046848
C 63.5844311757 36.3036698516 28.1029333564
C 57.149268413 49.9346922565 28.1029859032
C 57.1492965233 36.3038000303 23.640207224
C 66.7593935834 41.310934311 20.4652792357
C 53.9746447259 44.9276797136 20.4651732935
C 53.9744507065 41.3108520808 31.2777811118
C 66.7592642291 44.9275178888 31.2777759444
C 54.9606306766 49.5115270465 24.0632437213
C 54.9606211248 36.7267836531 27.6798527533
C 65.7731768275 36.7268484113 24.0631641646
C 65.7732248416 49.5117071574 27.6799334759
C 58.5586915837 37.7129430811 32.2638212617
C 62.1753905244 37.7129712397 19.4791247164
C 58.558586966 48.5255515066 19.479244957
C 62.1753703619 48.5255271494 32.2640659686
C 58.5585381861 49.5116780915 20.4653662124
C 62.1753561498 36.7268840002 20.4652901535
C 58.5586662985 36.7267534282 31.2777709288
C 62.1753049448 49.5115483405 31.2778345452
C 66.7592900903 37.713004683 24.0631021108
C 53.9745608779 37.7129694528 27.6797822136
C 53.9744505133 48.5254365886 24.0632478194
C 66.7592764371 48.5255096878 27.6799134341
C 54.9606830302 41.310913631 32.2638165116
C 54.9607312755 44.9276801551 19.4789946308
C 65.7732254177 41.3109718868 19.4791791777
C 65.7732186428 44.9276413375 32.2639919725
C 58.6966851363 35.9890083907 27.541868542
C 62.037258352 50.249251173 27.5418015553
C 62.0373094121 35.9891931411 24.2012832253
C 58.6966491266 50.2494722091 24.2012166733
C 62.0372215247 41.4489679576 18.7414631888
C 62.0371989613 44.7896296506 33.0018689377
C 58.6966665019 44.7895249432 18.7414394525
C 58.6966661363 41.4488976387 33.0016018605
C 53.2368162647 44.7896927461 24.2012949606
C 67.4968604052 44.7894625755 27.5418377169
C 53.2367826351 41.4490278037 27.5418237842
C 67.4972635874 41.4489833771 24.2011696043
C 67.3205896736 44.6130002944 18.9180597088
C 53.4134957979 41.6255701935 18.91799048
C 53.4133599688 44.612927823 32.825026669
C 67.3203292643 41.6255371159 32.8252307886
C 53.4133779754 50.0727483321 27.3652926433
C 53.4134427681 36.1656510517 24.377741843
C 67.3206565463 36.1658497521 27.3651766732
C 67.320498892 50.0727469454 24.3778586376
C 61.860714503 36.1656515277 32.8251314591
C 58.8732471333 36.1657751455 18.9180274935
C 61.8606436564 50.0729345176 18.9181922884
C 58.8732936952 50.0727913065 32.8252098016
C 58.2467575671 51.863508667 10.7440318807
C 62.4870990929 68.8701738705 10.7439677986
C 62.487138804 51.8636870669 6.5036837008
C 58.2467289463 68.8703719466 6.5036861397
C 62.48712424 58.2468147122 0.1205611436
C 62.4870972405 62.4871828615 17.1273806381
C 58.2468191035 62.4871424536 0.1205345476
C 58.2467800133 58.2467293982 17.1271080244
C 51.8635916595 62.487184024 6.5036494193
C 68.8701004781 62.4870046479 10.7439990204
C 51.8635797862 58.2467418027 10.7439429068
C 68.8704768333 58.2468243157 6.5035795592
C 66.8706890349 60.4874962347 2.1202198705
C 53.8633474358 60.2465051508 2.1201122552
C 53.8632254083 60.4874171747 15.127461909
C 66.8705042051 60.24643339 15.127587148
C 53.863241121 66.8705365445 8.7443966452
C 53.8632785657 53.8632266605 8.5032633057
C 66.8706932537 53.8633508508 8.7442691122
C 66.8705957628 66.8706013097 8.5033629732
C 60.4875019368 53.8631940658 15.127522138
C 60.2464814214 53.8633272042 2.1201932332
C 60.4874223421 66.8707196875 2.1203183894
C 60.2464962544 66.8706011199 15.127619177
C 58.1353740834 67.182371166 11.8414446655
C 62.5982832622 53.5513381054 11.8413395787
C 62.5982965912 67.1825464096 5.4062710437
C 58.1354053638 53.5515588243 5.4063592933
C 63.5845538792 58.1355696999 15.4394297621
C 63.584541523 62.5984389917 1.8085202295
C 57.1494302481 62.5984369806 15.4393682361
C 57.1494159636 58.1355240245 1.8082826493
C 67.1823810179 63.5844819598 6.392288637
C 53.5512881664 63.5843816092 10.8552516045
C 67.1824750869 57.1492136308 10.855127421
C 53.551625973 57.1494049665 6.3922555456
C 67.1824321505 58.1352385648 11.8413510691
C 53.5513092224 62.5982171241 11.8413360361
C 67.1824548208 62.5983530153 5.4061663846
C 53.5516546973 58.1356003387 5.4062009973
C 58.1355245351 63.5846068193 15.4394310591
C 62.5984206815 63.584562917 1.8085418857
C 62.5984638042 57.1493893193 15.4394308694
C 58.1355286987 57.1493870047 1.8082874408
C 63.5844873928 67.1825276475 6.392346848
C 63.5844311757 53.5513698516 10.8552333564
C 57.149268413 67.1823922565 10.8552859032
C 57.1492965233 53.5515000303 6.392507224
C 66.7593935834 58.558634311 3.2175792392
C 53.9746447259 62.1753797136 3.2174732935
C 53.9744507065 58.5585520808 14.0300811118
C 66.7592642291 62.1752178888 14.0300759444
C 54.9606306766 66.7592270465 6.8155437213
C 54.9606211248 53.9744836531 10.4321527533
C 65.7731768275 53.9745484113 6.8154641646
C 65.7732248416 66.7594071574 10.4322334759
C 58.5586915837 54.9606430811 15.0161212617
C 62.1753905244 54.9606712397 2.2314247164
C 58.558586966 65.7732515066 2.231544957
C 62.1753703619 65.7732271528 15.0163659686
C 58.5585381861 66.7593780915 3.217666209
C 62.1753561498 53.9745840002 3.2175901535
C 58.5586662985 53.9744534282 14.0300709322
C 62.1753049448 66.7592483371 14.0301345452
C 66.7592900903 54.960704683 6.8154021108
C 53.9745608779 54.9606694528 10.4320822136
C 53.9744505133 65.7731365886 6.8155478194
C 66.7592764371 65.7732096878 10.4322134376
C 54.9606830302 58.558613631 15.0161165116
C 54.9607312755 62.1753801551 2.2312946308
C 65.7732254177 58.5586718868 2.2314791777
C 65.7732186428 62.175341334 15.0162919725
C 58.6966851363 53.2367083907 10.2941685385
C 62.037258352 67.4969511695 10.2941015553
C 62.0373094121 53.2368931411 6.9535832287
C 58.6966491266 67.4971722091 6.9535166733
C 62.0372215247 58.6966679576 1.4937631888
C 62.0371989613 62.0373296506 15.7541689377
C 58.6966665019 62.0372249432 1.4937394525
C 58.6966661363 58.6965976387 15.7539018605
C 53.2368162647 62.0373927461 6.9535949606
C 67.4968604052 62.0371625755 10.2941377169
C 53.2367826351 58.6967278037 10.2941237842
C 67.4972635874 58.6966833771 6.9534696043
C 67.3205896736 61.8607002944 1.6703597122
C 53.4134957979 58.8732701935 1.67029048
C 53.4133599688 61.8606278264 15.577326669
C 67.3203292643 58.8732371159 15.5775307852
C 53.4133779754 67.3204483321 10.1175926433
C 53.4134427681 53.4133510517 7.130041843
C 67.3206565463 53.4135497556 10.1174766732
C 67.320498892 67.3204469454 7.1301586376
C 61.860714503 53.4133515277 15.5774314557
C 58.8732471333 53.4134751455 1.670327497
C 61.8606436564 67.320634521 1.6704922849
C 58.8732936952 67.3204913065 15.5775098016
C 58.2467575671 51.863508667 27.9917318773
C 62.4870990929 68.8701738705 27.9916677986
C 62.487138804 51.8636870669 23.7513837008
C 58.2467289463 68.8703719466 23.7513861397
C 62.48712424 58.2468147122 17.368261147
C 62.4870972405 62.4871828615 34.3750806416
C 58.2468191035 62.4871424536 17.3682345476
C 58.2467800133 58.2467293982 34.3748080244
C 51.8635916595 62.487184024 23.7513494193
C 68.8701004781 62.4870046479 27.9916990204
C 51.8635797862 58.2467418027 27.9916429068
C 68.8704768333 58.2468243157 23.7512795558
C 66.8706890349 60.4874962347 19.3679198705
C 53.8633474358 60.2465051508 19.3678122552
C 53.8632254083 60.4874171747 32.375161909
C 66.8705042051 60.24643339 32.375287148
C 53.863241121 66.8705365445 25.9920966452
C 53.8632785657 53.8632266605 25.7509633057
C 66.8706932537 53.8633508508 25.9919691122
C 66.8705957628 66.8706013097 25.7510629732
C 60.4875019368 53.8631940658 32.3752221414
C 60.2464814214 53.8633272042 19.3678932366
C 60.4874223421 66.8707196875 19.3680183894
C 60.2464962544 66.8706011199 32.375319177
C 58.1353740834 67.182371166 29.0891446655
C 62.5982832622 53.5513381054 29.0890395753
C 62.5982965912 67.1825464096 22.6539710437
C 58.1354053638 53.5515588243 22.6540592933
C 63.5845538792 58.1355696999 32.6871297621
C 63.584541523 62.5984389917 19.0562202295
C 57.1494302481 62.5984369806 32.6870682361
C 57.1494159636 58.1355240245 19.0559826493
C 67.1823810179 63.5844819598 23.639988637
C 53.5512881664 63.5843816092 28.102951601
C 67.1824750869 57.1492136308 28.102827421
C 53.551625973 57.1494049665 23.6399555456
C 67.1824321505 58.1352385648 29.0890510657
C 53.5513092224 62.5982171241 29.0890360361
C 67.1824548208 62.5983530153 22.6538663812
C 53.5516546973 58.1356003387 22.6539009939
C 58.1355245351 63.5846068193 32.6871310591
C 62.5984206815 63.584562917 19.0562418857
C 62.5984638042 57.1493893193 32.6871308694
C 58.1355286987 57.1493870047 19.0559874408
C 63.5844873928 67.1825276475 23.640046848
C 63.5844311757 53.5513698516 28.1029333564
C 57.149268413 67.1823922565 28.1029859032
C 57.1492965233 53.5515000303 23.640207224
C 66.7593935834 58.558634311 20.4652792357
C 53.9746447259 62.1753797136 20.4651732935
C 53.9744507065 58.5585520808 31.2777811118
C 66.7592642291 62.1752178888 31.2777759444
C 54.9606306766 66.7592270465 24.0632437213
C 54.9606211248 53.9744836531 27.6798527533
C 65.7731768275 53.9745484113 24.0631641646
C 65.7732248416 66.7594071574 27.6799334759
C 58.5586915837 54.9606430811 32.2638212617
C 62.1753905244 54.9606712397 19.4791247164
C 58.558586966 65.7732515066 19.479244957
C 62.1753703619 65.7732271528 32.2640659686
C 58.5585381861 66.7593780915 20.4653662124
C 62.1753561498 53.9745840002 20.4652901535
C 58.5586662985 53.9744534282 31.2777709288
C 62.1753049448 66.7592483371 31.2778345452
C 66.7592900903 54.960704683 24.0631021108
C 53.9745608779 54.9606694528 27.6797822136
C 53.9744505133 65.7731365886 24.0632478194
C 66.7592764371 65.7732096878 27.6799134341
C 54.9606830302 58.558613631 32.2638165116
C 54.9607312755 62.1753801551 19.4789946308
C 65.7732254177 58.5586718868 19.4791791777
C 65.7732186428 62.175341334 32.2639919725
C 58.6966851363 53.2367083907 27.541868542
C 62.037258352 67.4969511695 27.5418015553
C 62.0373094121 53.2368931411 24.2012832253
C 58.6966491266 67.4971722091 24.2012166733
C 62.0372215247 58.6966679576 18.7414631888
C 62.0371989613 62.0373296506 33.0018689377
C 58.6966665019 62.0372249432 18.7414394525
C 58.6966661363 58.6965976387 33.0016018605
C 53.2368162647 62.0373927461 24.2012949606
C 67.4968604052 62.0371625755 27.5418377169
C 53.2367826351 58.6967278037 27.5418237842
C 67.4972635874 58.6966833771 24.2011696043
C 67.3205896736 61.8607002944 18.9180597088
C 53.4134957979 58.8732701935 18.91799048
C 53.4133599688 61.8606278264 32.825026669
C 67.3203292643 58.8732371159 32.8252307886
C 53.4133779754 67.3204483321 27.3652926433
C 53.4134427681 53.4133510517 24.377741843
C 67.3206565463 53.4135497556 27.3651766732
C 67.320498892 67.3204469454 24.3778586376
C 61.860714503 53.4133515277 32.8251314591
C 58.8732471333 53.4134751455 18.9180274935
C 61.8606436564 67.320634521 18.9181922884
C 58.8732936952 67.3204913065 32.8252098016
Zn 43.1192463504 34.495240957 12.9357967838
Zn 43.1191767214 34.4955568161 4.31199931
Zn 47.4311525538 43.1193741076 1.2673959275e-04
Zn 38.8073773778 43.1192438564 -1.017853594e-04
Zn 34.4952634531 47.4311270583 8.6238764476
Zn 34.4955125193 38.8073706616 8.6236518308
Zn 34.4952252249 43.1191034739 12.9357706501
Zn 34.4955561683 43.1193182491 4.3119119573
Zn 43.1193027538 47.431260828 1.859293081e-04
Zn 43.119289956 38.8073035025 -2.7459185405e-05
Zn 47.4312452395 34.4954260991 8.6238515661
Zn 38.807281215 34.4953304075 8.6238636981
Zn 43.1192463504 34.495240957 30.1834967838
Zn 43.1191767214 34.4955568161 21.55969931
Zn 47.4311525538 43.1193741076 17.2478267395
Zn 38.8073773778 43.1192438564 17.2475982144
Zn 34.4952634531 47.4311270583 25.8715764442
Zn 34.4955125193 38.8073706616 25.8713518308
Zn 34.4952252249 43.1191034739 30.1834706501
Zn 34.4955561683 43.1193182491 21.5596119573
Zn 43.1193027538 47.431260828 17.2478859302
Zn 43.119289956 38.8073035025 17.2476725417
Zn 47.4312452395 34.4954260991 25.8715515661
Zn 38.807281215 34.4953304075 25.8715636981
Zn 43.1192463504 51.7429409555 12.9357967838
Zn 43.1191767214 51.7432568161 4.31199931
Zn 47.4311525538 60.3670741076 1.2673959275e-04
Zn 38.8073773778 60.3669438564 -1.017853594e-04
Zn 34.4952634531 64.6788270583 8.6238764476
Zn 34.4955125193 56.0550706581 8.6236518308
Zn 34.4952252249 60.3668034739 12.9357706501
Zn 34.4955561683 60.3670182491 4.3119119573
Zn 43.1193027538 64.678960828 1.859293081e-04
Zn 43.119289956 56.0550035025 -2.7459185405e-05
Zn 47.4312452395 51.7431260992 8.6238515661
Zn 38.807281215 51.743030409 8.6238636981
Zn 43.1192463504 51.7429409555 30.1834967838
Zn 43.1191767214 51.7432568161 21.55969931
Zn 47.4311525538 60.3670741076 17.2478267395
Zn 38.8073773778 60.3669438564 17.2475982144
Zn 34.4952634531 64.6788270583 25.8715764442
Zn 34.4955125193 56.0550706581 25.8713518308
Zn 34.4952252249 60.3668034739 30.1834706501
Zn 34.4955561683 60.3670182491 21.5596119573
Zn 43.1193027538 64.678960828 17.2478859302
Zn 43.119289956 56.0550035025 17.2476725417
Zn 47.4312452395 51.7431260992 25.8715515661
Zn 38.807281215 51.743030409 25.8715636981
Zn 60.3669463504 34.495240957 12.9357967838
Zn 60.3668767249 34.4955568161 4.31199931
Zn 64.6788525538 43.1193741076 1.2673959275e-04
Zn 56.0550773744 43.1192438564 -1.017853594e-04
Zn 51.7429634534 47.4311270583 8.6238764476
Zn 51.7432125205 38.8073706616 8.6236518308
Zn 51.7429252256 43.1191034739 12.9357706501
Zn 51.7432561676 43.1193182491 4.3119119573
Zn 60.3670027538 47.431260828 1.859293081e-04
Zn 60.366989956 38.8073035025 -2.7459185405e-05
Zn 64.6789452395 34.4954260991 8.6238515661
Zn 56.054981215 34.4953304075 8.6238636981
Zn 60.3669463504 34.495240957 30.1834967838
Zn 60.3668767249 34.4955568161 21.55969931
Zn 64.6788525538 43.1193741076 17.2478267395
Zn 56.0550773744 43.1192438564 17.2475982144
Zn 51.7429634534 47.4311270583 25.8715764442
Zn 51.7432125205 38.8073706616 25.8713518308
Zn 51.7429252256 43.1191034739 30.1834706501
Zn 51.7432561676 43.1193182491 21.5596119573
Zn 60.3670027538 47.431260828 17.2478859302
Zn 60.366989956 38.8073035025 17.2476725417
Zn 64.6789452395 34.4954260991 25.8715515661
Zn 56.054981215 34.4953304075 25.8715636981
Zn 60.3669463504 51.7429409555 12.9357967838
Zn 60.3668767249 51.7432568161 4.31199931
Zn 64.6788525538 60.3670741076 1.2673959275e-04
Zn 56.0550773744 60.3669438564 -1.017853594e-04
Zn 51.7429634534 64.6788270583 8.6238764476
Zn 51.7432125205 56.0550706581 8.6236518308
Zn 51.7429252256 60.3668034739 12.9357706501
Zn 51.7432561676 60.3670182491 4.3119119573
Zn 60.3670027538 64.678960828 1.859293081e-04
Zn 60.366989956 56.0550035025 -2.7459185405e-05
Zn 64.6789452395 51.7431260992 8.6238515661
Zn 56.054981215 51.743030409 8.6238636981
Zn 60.3669463504 51.7429409555 30.1834967838
Zn 60.3668767249 51.7432568161 21.55969931
Zn 64.6788525538 60.3670741076 17.2478267395
Zn 56.0550773744 60.3669438564 17.2475982144
Zn 51.7429634534 64.6788270583 25.8715764442
Zn 51.7432125205 56.0550706581 25.8713518308
Zn 51.7429252256 60.3668034739 30.1834706501
Zn 51.7432561676 60.3670182491 21.5596119573
Zn 60.3670027538 64.678960828 17.2478859302
Zn 60.366989956 56.0550035025 17.2476725417
Zn 64.6789452395 51.7431260992 25.8715515661
Zn 56.054981215 51.743030409 25.8715636981
N 41.5745951991 51.155320844 11.7691278708
N 44.6637635043 35.0829350804 11.7690218009
N 44.6637595787 51.155526026 5.4786451249
N 41.5745956959 35.0832023852 5.4786359147
N 46.264482599 41.5747518255 16.6600890539
N 46.2644804189 44.6638873876 0.5878432933
N 39.9740764295 44.6638280107 16.6600119463
N 39.9740335655 41.5746580877 0.5875927084
N 51.1553447493 46.2645175774 7.07920423
N 35.0828738373 46.2643990546 10.1684327331
N 51.1554398945 39.9739983354 10.1682439191
N 35.0832339382 39.9740116954 7.0791115236
N 51.1553803761 41.5744804536 11.7690823472
N 35.0829167426 44.6636565478 11.7690161126
N 51.1554632755 44.6638437199 5.4785628603
N 35.083289086 41.5747792252 5.4785705942
N 41.5746945873 46.2645619143 16.660108223
N 44.6638267723 46.2645439491 0.5878774507
N 44.6638745484 39.9740109538 16.6600898335
N 41.574675532 39.9739734642 0.5876013599
N 46.2645291437 51.155491441 7.0792248272
N 46.2644632678 35.0829887483 10.1683887169
N 39.973969511 51.1553553394 10.1684135812
N 39.9739547918 35.0831023727 7.0793197379
N 50.1985962786 42.5315939166 3.1452645866
N 36.0400999691 43.7069833669 3.1452022017
N 36.0398399049 42.5314944457 14.1024666076
N 50.1983597747 43.7068121282 14.1024235125
N 37.6406379044 50.1983923315 8.0362147657
N 37.640585292 36.0398888055 9.2115021336
N 48.5978884018 36.0400122025 8.0361520082
N 48.5978867011 50.1985686582 9.2115626938
N 42.5316555289 37.6406315642 15.7030248675
N 43.7070022876 37.6406461316 1.5445563648
N 42.5315834335 48.5979211138 1.5447135948
N 43.7070217395 48.5979087851 15.7032853492
N 42.5314992785 50.1985953749 3.1453604114
N 43.7069427589 36.0400585195 3.1452885264
N 42.5316114679 36.039837604 14.1024866287
N 43.7069219443 50.1983987097 14.1024577699
N 50.1985325691 37.6407159054 8.0360393048
N 36.0400264456 37.640648598 9.2113863912
N 36.0398828551 48.5977973684 8.0362186912
N 50.1984259852 48.5977987793 9.2115318031
N 37.6406898476 42.5315945617 15.7029678949
N 37.6406788677 43.7069972133 1.5444505984
N 48.5978803574 42.5316485608 1.5446317269
N 48.5978326331 43.7070110736 15.7032263103
N 41.5745951991 51.155320844 29.0168278708
N 44.6637635043 35.0829350804 29.0167217974
N 44.6637595787 51.155526026 22.7263451249
N 41.5745956959 35.0832023852 22.7263359147
N 46.264482599 41.5747518255 33.9077890504
N 46.2644804189 44.6638873876 17.8355432933
N 39.9740764295 44.6638280107 33.9077119463
N 39.9740335655 41.5746580877 17.835292705
N 51.1553447493 46.2645175774 24.32690423
N 35.0828738373 46.2643990546 27.4161327331
N 51.1554398945 39.9739983354 27.4159439191
N 35.0832339382 39.9740116954 24.3268115236
N 51.1553803761 41.5744804536 29.0167823472
N 35.0829167426 44.6636565478 29.0167161126
N 51.1554632755 44.6638437199 22.7262628603
N 35.083289086 41.5747792252 22.7262705942
N 41.5746945873 46.2645619143 33.907808223
N 44.6638267723 46.2645439491 17.8355774507
N 44.6638745484 39.9740109538 33.9077898335
N 41.574675532 39.9739734642 17.8353013599
N 46.2645291437 51.155491441 24.3269248272
N 46.2644632678 35.0829887483 27.4160887204
N 39.973969511 51.1553553394 27.4161135812
N 39.9739547918 35.0831023727 24.3270197379
N 50.1985962786 42.5315939166 20.3929645866
N 36.0400999691 43.7069833669 20.3929022017
N 36.0398399049 42.5314944457 31.3501666076
N 50.1983597747 43.7068121282 31.3501235125
N 37.6406379044 50.1983923315 25.2839147657
N 37.640585292 36.0398888055 26.4592021371
N 48.5978884018 36.0400122025 25.2838520047
N 48.5978867011 50.1985686582 26.4592626903
N 42.5316555289 37.6406315642 32.9507248675
N 43.7070022876 37.6406461316 18.7922563648
N 42.5315834335 48.5979211138 18.7924135914
N 43.7070217395 48.5979087851 32.9509853458
N 42.5314992785 50.1985953749 20.3930604114
N 43.7069427589 36.0400585195 20.3929885264
N 42.5316114679 36.039837604 31.3501866287
N 43.7069219443 50.1983987097 31.3501577699
N 50.1985325691 37.6407159054 25.2837393048
N 36.0400264456 37.640648598 26.4590863878
N 36.0398828551 48.5977973684 25.2839186912
N 50.1984259852 48.5977987793 26.4592318031
N 37.6406898476 42.5315945617 32.9506678915
N 37.6406788677 43.7069972133 18.7921505984
N 48.5978803574 42.5316485608 18.7923317269
N 48.5978326331 43.7070110736 32.9509263103
N 41.5745951991 68.403020844 11.7691278708
N 44.6637635043 52.3306350804 11.7690218009
N 44.6637595787 68.403226026 5.4786451249
N 41.5745956959 52.3309023852 5.4786359147
N 46.264482599 58.8224518255 16.6600890539
N 46.2644804189 61.9115873841 0.5878432933
N 39.9740764295 61.9115280107 16.6600119463
N 39.9740335655 58.8223580843 0.5875927084
N 51.1553447493 63.5122175774 7.07920423
N 35.0828738373 63.5120990546 10.1684327331
N 51.1554398945 57.2216983354 10.1682439191
N 35.0832339382 57.2217116954 7.0791115236
N 51.1553803761 58.8221804536 11.7690823472
N 35.0829167426 61.9113565478 11.7690161126
N 51.1554632755 61.9115437199 5.4785628603
N 35.083289086 58.8224792252 5.4785705942
N 41.5746945873 63.5122619143 16.660108223
N 44.6638267723 63.5122439491 0.5878774507
N 44.6638745484 57.2217109572 16.6600898335
N 41.574675532 57.2216734642 0.5876013599
N 46.2645291437 68.403191441 7.0792248272
N 46.2644632678 52.3306887483 10.1683887169
N 39.973969511 68.4030553394 10.1684135812
N 39.9739547918 52.3308023762 7.0793197379
N 50.1985962786 59.7792939201 3.1452645866
N 36.0400999691 60.9546833634 3.1452022017
N 36.0398399049 59.7791944457 14.1024666076
N 50.1983597747 60.9545121248 14.1024235125
N 37.6406379044 67.4460923315 8.0362147657
N 37.640585292 53.2875888055 9.2115021336
N 48.5978884018 53.2877122059 8.0361520082
N 48.5978867011 67.4462686582 9.2115626938
N 42.5316555289 54.8883315642 15.7030248675
N 43.7070022876 54.8883461316 1.5445563648
N 42.5315834335 65.8456211138 1.5447135948
N 43.7070217395 65.8456087886 15.7032853492
N 42.5314992785 67.4462953749 3.1453604114
N 43.7069427589 53.287758516 3.1452885264
N 42.5316114679 53.287537604 14.1024866287
N 43.7069219443 67.4460987097 14.1024577699
N 50.1985325691 54.8884159054 8.0360393048
N 36.0400264456 54.888348598 9.2113863912
N 36.0398828551 65.8454973684 8.0362186912
N 50.1984259852 65.8454987793 9.2115318031
N 37.6406898476 59.7792945617 15.7029678949
N 37.6406788677 60.9546972133 1.5444505984
N 48.5978803574 59.7793485608 1.5446317269
N 48.5978326331 60.9547110701 15.7032263103
N 41.5745951991 68.403020844 29.0168278708
N 44.6637635043 52.3306350804 29.0167217974
N 44.6637595787 68.403226026 22.7263451249
N 41.5745956959 52.3309023852 22.7263359147
N 46.264482599 58.8224518255 33.9077890504
N 46.2644804189 61.9115873841 17.8355432933
N 39.9740764295 61.9115280107 33.9077119463
N 39.9740335655 58.8223580843 17.835292705
N 51.1553447493 63.5122175774 24.32690423
N 35.0828738373 63.5120990546 27.4161327331
N 51.1554398945 57.2216983354 27.4159439191
N 35.0832339382 57.2217116954 24.3268115236
N 51.1553803761 58.8221804536 29.0167823472
N 35.0829167426 61.9113565478 29.0167161126
N 51.1554632755 61.9115437199 22.7262628603
N 35.083289086 58.8224792252 22.7262705942
N 41.5746945873 63.5122619143 33.907808223
N 44.6638267723 63.5122439491 17.8355774507
N 44.6638745484 57.2217109572 33.9077898335
N 41.574675532 57.2216734642 17.8353013599
N 46.2645291437 68.403191441 24.3269248272
N 46.2644632678 52.3306887483 27.4160887204
N 39.973969511 68.4030553394 27.4161135812
N 39.9739547918 52.3308023762 24.3270197379
N 50.1985962786 59.7792939201 20.3929645866
N 36.0400999691 60.9546833634 20.3929022017
N 36.0398399049 59.7791944457 31.3501666076
N 50.1983597747 60.9545121248 31.3501235125
N 37.6406379044 67.4460923315 25.2839147657
N 37.640585292 53.2875888055 26.4592021371
N 48.5978884018 53.2877122059 25.2838520047
N 48.5978867011 67.4462686582 26.4592626903
N 42.5316555289 54.8883315642 32.9507248675
N 43.7070022876 54.8883461316 18.7922563648
N 42.5315834335 65.8456211138 18.7924135914
N 43.7070217395 65.8456087886 32.9509853458
N 42.5314992785 67.4462953749 20.3930604114
N 43.7069427589 53.287758516 20.3929885264
N 42.5316114679 53.287537604 31.3501866287
N 43.7069219443 67.4460987097 31.3501577699
N 50.1985325691 54.8884159054 25.2837393048
N 36.0400264456 54.888348598 26.4590863878
N 36.0398828551 65.8454973684 25.2839186912
N 50.1984259852 65.8454987793 26.4592318031
N 37.6406898476 59.7792945617 32.9506678915
N 37.6406788677 60.9546972133 18.7921505984
N 48.5978803574 59.7793485608 18.7923317269
N 48.5978326331 60.9547110701 32.9509263103
N 58.8222951991 51.155320844 11.7691278708
N 61.9114635077 35.0829350804 11.7690218009
N 61.9114595787 51.155526026 5.4786451249
N 58.8222956959 35.0832023852 5.4786359147
N 63.512182599 41.5747518255 16.6600890539
N 63.5121804189 44.6638873876 0.5878432933
N 57.2217764295 44.6638280107 16.6600119463
N 57.2217335655 41.5746580877 0.5875927084
N 68.4030447493 46.2645175774 7.07920423
N 52.3305738373 46.2643990546 10.1684327331
N 68.4031398945 39.9739983354 10.1682439191
N 52.3309339382 39.9740116954 7.0791115236
N 68.4030803761 41.5744804536 11.7690823472
N 52.3306167426 44.6636565478 11.7690161126
N 68.403163272 44.6638437199 5.4785628603
N 52.330989086 41.5747792252 5.4785705942
N 58.8223945873 46.2645619143 16.660108223
N 61.9115267723 46.2645439491 0.5878774507
N 61.9115745484 39.9740109538 16.6600898335
N 58.8223755286 39.9739734642 0.5876013599
N 63.5122291437 51.155491441 7.0792248272
N 63.5121632678 35.0829887483 10.1683887169
N 57.221669511 51.1553553394 10.1684135812
N 57.2216547884 35.0831023727 7.0793197379
N 67.4462962786 42.5315939166 3.1452645866
N 53.2877999691 43.7069833669 3.1452022017
N 53.2875399049 42.5314944457 14.1024666076
N 67.4460597747 43.7068121282 14.1024235125
N 54.8883379044 50.1983923315 8.0362147657
N 54.888285292 36.0398888055 9.2115021336
N 65.8455884052 36.0400122025 8.0361520082
N 65.8455867046 50.1985686582 9.2115626938
N 59.7793555289 37.6406315642 15.7030248675
N 60.9547022876 37.6406461316 1.5445563648
N 59.7792834335 48.5979211138 1.5447135948
N 60.9547217395 48.5979087851 15.7032853492
N 59.7791992785 50.1985953749 3.1453604114
N 60.9546427589 36.0400585195 3.1452885264
N 59.7793114645 36.039837604 14.1024866287
N 60.9546219443 50.1983987097 14.1024577699
N 67.4462325691 37.6407159054 8.0360393048
N 53.2877264491 37.640648598 9.2113863912
N 53.2875828551 48.5977973684 8.0362186912
N 67.4461259852 48.5977987793 9.2115318031
N 54.8883898476 42.5315945617 15.7029678949
N 54.8883788712 43.7069972133 1.5444505984
N 65.8455803574 42.5316485608 1.5446317269
N 65.8455326331 43.7070110736 15.7032263103
N 58.8222951991 51.155320844 29.0168278708
N 61.9114635077 35.0829350804 29.0167217974
N 61.9114595787 51.155526026 22.7263451249
N 58.8222956959 35.0832023852 22.7263359147
N 63.512182599 41.5747518255 33.9077890504
N 63.5121804189 44.6638873876 17.8355432933
N 57.2217764295 44.6638280107 33.9077119463
N 57.2217335655 41.5746580877 17.835292705
N 68.4030447493 46.2645175774 24.32690423
N 52.3305738373 46.2643990546 27.4161327331
N 68.4031398945 39.9739983354 27.4159439191
N 52.3309339382 39.9740116954 24.3268115236
N 68.4030803761 41.5744804536 29.0167823472
N 52.3306167426 44.6636565478 29.0167161126
N 68.403163272 44.6638437199 22.7262628603
N 52.330989086 41.5747792252 22.7262705942
N 58.8223945873 46.2645619143 33.907808223
N 61.9115267723 46.2645439491 17.8355774507
N 61.9115745484 39.9740109538 33.9077898335
N 58.8223755286 39.9739734642 17.8353013599
N 63.5122291437 51.155491441 24.3269248272
N 63.5121632678 35.0829887483 27.4160887204
N 57.221669511 51.1553553394 27.4161135812
N 57.2216547884 35.0831023727 24.3270197379
N 67.4462962786 42.5315939166 20.3929645866
N 53.2877999691 43.7069833669 20.3929022017
N 53.2875399049 42.5314944457 31.3501666076
N 67.4460597747 43.7068121282 31.3501235125
N 54.8883379044 50.1983923315 25.2839147657
N 54.888285292 36.0398888055 26.4592021371
N 65.8455884052 36.0400122025 25.2838520047
N 65.8455867046 50.1985686582 26.4592626903
N 59.7793555289 37.6406315642 32.9507248675
N 60.9547022876 37.6406461316 18.7922563648
N 59.7792834335 48.5979211138 18.7924135914
N 60.9547217395 48.5979087851 32.9509853458
N 59.7791992785 50.1985953749 20.3930604114
N 60.9546427589 36.0400585195 20.3929885264
N 59.7793114645 36.039837604 31.3501866287
N 60.9546219443 50.1983987097 31.3501577699
N 67.4462325691 37.6407159054 25.2837393048
N 53.2877264491 37.640648598 26.4590863878
N 53.2875828551 48.5977973684 25.2839186912
N 67.4461259852 48.5977987793 26.4592318031
N 54.8883898476 42.5315945617 32.9506678915
N 54.8883788712 43.7069972133 18.7921505984
N 65.8455803574 42.5316485608 18.7923317269
N 65.8455326331 43.7070110736 32.9509263103
N 58.8222951991 68.403020844 11.7691278708
N 61.9114635077 52.3306350804 11.7690218009
N 61.9114595787 68.403226026 5.4786451249
N 58.8222956959 52.3309023852 5.4786359147
N 63.512182599 58.8224518255 16.6600890539
N 63.5121804189 61.9115873841 0.5878432933
N 57.2217764295 61.9115280107 16.6600119463
N 57.2217335655 58.8223580843 0.5875927084
N 68.4030447493 63.5122175774 7.07920423
N 52.3305738373 63.5120990546 10.1684327331
N 68.4031398945 57.2216983354 10.1682439191
N 52.3309339382 57.2217116954 7.0791115236
N 68.4030803761 58.8221804536 11.7690823472
N 52.3306167426 61.9113565478 11.7690161126
N 68.403163272 61.9115437199 5.4785628603
N 52.330989086 58.8224792252 5.4785705942
N 58.8223945873 63.5122619143 16.660108223
N 61.9115267723 63.5122439491 0.5878774507
N 61.9115745484 57.2217109572 16.6600898335
N 58.8223755286 57.2216734642 0.5876013599
N 63.5122291437 68.403191441 7.0792248272
N 63.5121632678 52.3306887483 10.1683887169
N 57.221669511 68.4030553394 10.1684135812
N 57.2216547884 52.3308023762 7.0793197379
N 67.4462962786 59.7792939201 3.1452645866
N 53.2877999691 60.9546833634 3.1452022017
N 53.2875399049 59.7791944457 14.1024666076
N 67.4460597747 60.9545121248 14.1024235125
N 54.8883379044 67.4460923315 8.0362147657
N 54.888285292 53.2875888055 9.2115021336
N 65.8455884052 53.2877122059 8.0361520082
N 65.8455867046 67.4462686582 9.2115626938
N 59.7793555289 54.8883315642 15.7030248675
N 60.9547022876 54.8883461316 1.5445563648
N 59.7792834335 65.8456211138 1.5447135948
N 60.9547217395 65.8456087886 15.7032853492
N 59.7791992785 67.4462953749 3.1453604114
N 60.9546427589 53.287758516 3.1452885264
N 59.7793114645 53.287537604 14.1024866287
N 60.9546219443 67.4460987097 14.1024577699
N 67.4462325691 54.8884159054 8.0360393048
N 53.2877264491 54.888348598 9.2113863912
N 53.2875828551 65.8454973684 8.0362186912
N 67.4461259852 65.8454987793 9.2115318031
N 54.8883898476 59.7792945617 15.7029678949
N 54.8883788712 60.9546972133 1.5444505984
N 65.8455803574 59.7793485608 1.5446317269
N 65.8455326331 60.9547110701 15.7032263103
N 58.8222951991 68.403020844 29.0168278708
N 61.9114635077 52.3306350804 29.0167217974
N 61.9114595787 68.403226026 22.7263451249
N 58.8222956959 52.3309023852 22.7263359147
N 63.512182599 58.8224518255 33.9077890504
N 63.5121804189 61.9115873841 17.8355432933
N 57.2217764295 61.9115280107 33.9077119463
N 57.2217335655 58.8223580843 17.835292705
N 68.4030447493 63.5122175774 24.32690423
N 52.3305738373 63.5120990546 27.4161327331
N 68.4031398945 57.2216983354 27.4159439191
N 52.3309339382 57.2217116954 24.3268115236
N 68.4030803761 58.8221804536 29.0167823472
N 52.3306167426 61.9113565478 29.0167161126
N 68.403163272 61.9115437199 22.7262628603
N 52.330989086 58.8224792252 22.7262705942
N 58.8223945873 63.5122619143 33.907808223
N 61.9115267723 63.5122439491 17.8355774507
N 61.9115745484 57.2217109572 33.9077898335
N 58.8223755286 57.2216734642 17.8353013599
N 63.5122291437 68.403191441 24.3269248272
N 63.5121632678 52.3306887483 27.4160887204
N 57.221669511 68.4030553394 27.4161135812
N 57.2216547884 52.3308023762 24.3270197379
N 67.4462962786 59.7792939201 20.3929645866
N 53.2877999691 60.9546833634 20.3929022017
N 53.2875399049 59.7791944457 31.3501666076
N 67.4460597747 60.9545121248 31.3501235125
N 54.8883379044 67.4460923315 25.2839147657
N 54.888285292 53.2875888055 26.4592021371
N 65.8455884052 53.2877122059 25.2838520047
N 65.8455867046 67.4462686582 26.4592626903
N 59.7793555289 54.8883315642 32.9507248675
N 60.9547022876 54.8883461316 18.7922563648
N 59.7792834335 65.8456211138 18.7924135914
N 60.9547217395 65.8456087886 32.9509853458
N 59.7791992785 67.4462953749 20.3930604114
N 60.9546427589 53.287758516 20.3929885264
N 59.7793114645 53.287537604 31.3501866287
N 60.9546219443 67.4460987097 31.3501577699
N 67.4462325691 54.8884159054 25.2837393048
N 53.2877264491 54.888348598 26.4590863878
N 53.2875828551 65.8454973684 25.2839186912
N 67.4461259852 65.8454987793 26.4592318031
N 54.8883898476 59.7792945617 32.9506678915
N 54.8883788712 60.9546972133 18.7921505984
N 65.8455803574 59.7793485608 18.7923317269
N 65.8455326331 60.9547110701 32.9509263103
H 41.1670332244 49.159829627 47.0658588449
H 45.0711207695 37.0785143537 47.0656727767
H 45.0711349505 49.1599807272 39.1727199978
H 41.1670827702 37.0787487983 39.1728042977
H 47.0658285441 41.1673041306 49.1599768637
H 47.0658280543 45.0713268415 37.0787747457
H 39.1727644313 45.0713445618 49.1598755059
H 39.172781065 41.1672588726 37.0785732546
H 49.1597990193 47.0657500291 41.1670451805
H 37.0784551251 47.0656684717 45.071259986
H 49.1599185562 39.1725507358 45.0710444587
H 37.0787669359 39.1726926119 41.1670109852
H 49.1598841091 41.1667988868 47.0657999371
H 37.07852572 45.0710440413 47.0656354734
H 49.1599040888 45.0711993741 39.1725836754
H 37.078845513 41.1673603374 39.1726747192
H 41.1672249464 47.0659196913 49.1600014935
H 45.0713346168 47.0658204584 37.0788231048
H 45.0714136975 39.1726850816 49.1599750458
H 41.1672499625 39.1727449069 37.0785740722
H 47.0657793399 49.1599678535 41.1671126328
H 47.0656881202 37.0785568072 45.0712204336
H 39.1725795808 49.159837078 45.0712642496
H 39.1726346631 37.0786488927 41.1673715864
H 49.7910846672 40.5360662277 38.4419490816
H 36.4475799069 45.7025410495 38.4418576619
H 36.4472668266 40.5359445004 47.7965759897
H 49.7909496867 45.7023200927 47.7964298499
H 38.4419435071 49.7908824345 40.5360962422
H 38.4418554507 36.4473559214 45.7024529207
H 47.7964771569 36.4474103689 40.5360242572
H 47.7966031617 49.7911654451 45.702526282
H 40.5361660333 38.4419934565 49.7908323886
H 45.7025994261 38.4418916019 36.4473793127
H 40.536036196 47.7965535953 36.4475291745
H 45.7025742513 47.7966177808 49.7912314693
H 40.5359525067 49.791059251 38.4420261685
H 45.7025294591 36.4474872764 38.4419632799
H 40.5360738409 36.4473044335 47.7965231738
H 45.7024393329 49.7908790022 47.7964958672
H 49.7909404971 38.4419863194 40.5359267766
H 36.4474876248 38.4419764192 45.7023213794
H 36.4472917254 47.796506133 40.5360649514
H 49.7909496936 47.7965130045 45.7024640213
H 38.4420374519 40.5361019684 49.790849481
H 38.4419518585 45.7025688839 36.4472222827
H 47.7965307455 40.5361169153 36.4474683626
H 47.7966327657 45.702573727 49.7911290042
H 40.9110690982 36.806436581 45.3277577008
H 44.9806318325 50.1147531944 43.7013314784
H 45.3276379156 36.8066091822 40.9108780903
H 40.9109201919 49.4320386271 40.9108350124
H 43.7013190083 41.2579519637 36.1235910313
H 45.32750229 45.3277501912 49.432146853
H 42.5371631231 44.9805302884 36.1236438989
H 40.9109040032 40.91085097 49.4318630455
H 36.1236175824 43.7015041003 41.2580364774
H 49.4317426738 45.327483214 45.3276439523
H 36.1234114517 42.5372534665 44.9804079125
H 49.4321233168 40.9109300542 40.9108148844
H 36.8065357829 40.9111439429 45.3277177862
H 50.1146622024 44.9805082907 43.7013591851
H 36.806544217 45.3277779255 40.9109560637
H 50.1151227505 41.2579967698 42.5370638005
H 40.9108665171 45.3275323596 36.806567191
H 44.9805448248 43.701457942 50.1150679339
H 45.3275745406 40.9109109782 36.8065935489
H 41.2580004539 42.5370937839 50.1148671707
H 43.701393715 36.1236448889 41.2580688203
H 45.3275720362 49.4318439868 45.3276250108
H 42.537224863 36.1233744726 44.9804315833
H 42.5371525675 50.1150862371 41.2579115282
H 49.5348141977 45.4304212649 36.7037957978
H 36.3566767078 41.491130764 35.0774763696
H 36.7036801036 45.430338438 49.534598836
H 49.8816347059 41.491169523 51.1611338294
H 35.0774670283 49.8817898351 44.7474325212
H 36.7039227753 36.7036178187 40.8080363368
H 49.5349464496 36.7039489746 45.4303046049
H 51.160982605 49.8816701982 41.4911140096
H 45.4304459394 36.703611137 49.5346742257
H 41.4910141213 35.0776140201 36.3568266213
H 44.7473856558 51.1611194759 36.3569127253
H 41.4911388566 51.1609675616 49.8818515233
H 45.4303734129 49.5348882111 36.7039569051
H 40.808134183 36.703937222 36.7036971858
H 44.7475152999 36.3567935782 51.16099166
H 40.8081370358 49.5346794863 49.5349343659
H 49.8819749512 35.0776614892 44.7473884189
H 36.356637114 35.0774420053 41.4910313345
H 36.7037142851 49.5346892347 45.4304316204
H 49.5346886207 49.5347451069 40.8081268355
H 35.0774423675 44.747335741 49.8817801523
H 36.7039733387 40.8081871438 36.7036899693
H 51.1610859912 44.7474596001 36.3567917741
H 49.5345353887 40.8081016332 49.5349123337
H 41.2578523479 36.1235244206 43.7014063507
H 43.7013416304 50.1147780311 44.9804007789
H 44.9806889845 36.1236651343 42.5371595425
H 41.2579908504 50.1149910333 42.5371108901
H 44.9805018676 42.5371587353 36.1236389247
H 43.7012826812 44.9805514582 50.1151475527
H 41.257967873 43.7013260074 36.1235314784
H 42.5371709121 41.2579047602 50.1148829282
H 36.123523779 44.9807193128 42.5371892775
H 50.1146907888 43.7012625704 44.9804659786
H 36.1236372585 41.2579255057 43.7013653736
H 50.1151188491 42.5371718573 41.257895443
H 49.8819310938 44.7474392237 35.0775559816
H 35.077623765 41.4910282713 36.3567891835
H 36.3567189612 44.7474262672 51.1609056527
H 51.1608324776 41.4910620975 49.881953571
H 36.3567144975 51.1609341666 44.7474387235
H 35.0775707594 36.3567258672 41.4908805723
H 51.1611690561 36.3568657495 44.7472490299
H 49.8819241706 51.1609544878 41.4911147823
H 44.7474341046 35.0774362377 49.8819805361
H 41.4911328924 36.3566504154 35.0775089126
H 44.747423618 49.881970698 35.0776989374
H 41.4912096032 49.8818841318 51.161124864
H 41.1670332244 49.159829627 64.3135588449
H 45.0711207695 37.0785143537 64.3133727767
H 45.0711349505 49.1599807272 56.4204199978
H 41.1670827702 37.0787487983 56.4205043011
H 47.0658285441 41.1673041306 66.4076768603
H 47.0658280543 45.0713268415 54.3264747457
H 39.1727644313 45.0713445618 66.4075755059
H 39.172781065 41.1672588726 54.3262732546
H 49.1597990193 47.0657500291 58.4147451771
H 37.0784551251 47.0656684717 62.318959986
H 49.1599185562 39.1725507358 62.3187444587
H 37.0787669359 39.1726926119 58.4147109818
H 49.1598841091 41.1667988868 64.3134999371
H 37.07852572 45.0710440413 64.3133354699
H 49.1599040888 45.0711993741 56.4202836754
H 37.078845513 41.1673603374 56.4203747192
H 41.1672249464 47.0659196913 66.4077014935
H 45.0713346168 47.0658204584 54.3265231048
H 45.0714136975 39.1726850816 66.4076750424
H 41.1672499625 39.1727449069 54.3262740687
H 47.0657793399 49.1599678535 58.4148126328
H 47.0656881202 37.0785568072 62.3189204336
H 39.1725795808 49.159837078 62.3189642496
H 39.1726346631 37.0786488927 58.4150715864
H 49.7910846672 40.5360662277 55.6896490816
H 36.4475799069 45.7025410495 55.6895576619
H 36.4472668266 40.5359445004 65.0442759897
H 49.7909496867 45.7023200927 65.0441298499
H 38.4419435071 49.7908824345 57.7837962456
H 38.4418554507 36.4473559214 62.9501529207
H 47.7964771569 36.4474103689 57.7837242572
H 47.7966031617 49.7911654451 62.950226282
H 40.5361660333 38.4419934565 67.0385323886
H 45.7025994261 38.4418916019 53.6950793127
H 40.536036196 47.7965535953 53.6952291745
H 45.7025742513 47.7966177808 67.0389314693
H 40.5359525067 49.791059251 55.6897261719
H 45.7025294591 36.4474872764 55.6896632764
H 40.5360738409 36.4473044335 65.0442231738
H 45.7024393329 49.7908790022 65.0441958638
H 49.7909404971 38.4419863194 57.7836267766
H 36.4474876248 38.4419764192 62.9500213828
H 36.4472917254 47.796506133 57.7837649549
H 49.7909496936 47.7965130045 62.9501640213
H 38.4420374519 40.5361019684 67.0385494776
H 38.4419518585 45.7025688839 53.6949222827
H 47.7965307455 40.5361169153 53.6951683591
H 47.7966327657 45.702573727 67.0388290042
H 40.9110690982 36.806436581 62.5754576974
H 44.9806318325 50.1147531944 60.9490314784
H 45.3276379156 36.8066091822 58.1585780903
H 40.9109201919 49.4320386271 58.1585350124
H 43.7013190083 41.2579519637 53.3712910313
H 45.32750229 45.3277501912 66.679846853
H 42.5371631231 44.9805302884 53.3713438989
H 40.9109040032 40.91085097 66.6795630455
H 36.1236175824 43.7015041003 58.5057364774
H 49.4317426738 45.327483214 62.5753439523
H 36.1234114517 42.5372534665 62.2281079091
H 49.4321233168 40.9109300542 58.1585148878
H 36.8065357829 40.9111439429 62.5754177862
H 50.1146622024 44.9805082907 60.9490591851
H 36.806544217 45.3277779255 58.1586560672
H 50.1151227505 41.2579967698 59.7847638005
H 40.9108665171 45.3275323596 54.054267191
H 44.9805448248 43.701457942 67.3627679339
H 45.3275745406 40.9109109782 54.0542935455
H 41.2580004539 42.5370937839 67.3625671707
H 43.701393715 36.1236448889 58.5057688203
H 45.3275720362 49.4318439868 62.5753250108
H 42.537224863 36.1233744726 62.2281315833
H 42.5371525675 50.1150862371 58.5056115282
H 49.5348141977 45.4304212649 53.9514957978
H 36.3566767078 41.491130764 52.3251763696
H 36.7036801036 45.430338438 66.782298836
H 49.8816347059 41.491169523 68.4088338294
H 35.0774670283 49.8817898351 61.9951325212
H 36.7039227753 36.7036178187 58.0557363368
H 49.5349464496 36.7039489746 62.6780046014
H 51.160982605 49.8816701982 58.7388140096
H 45.4304459394 36.703611137 66.7823742257
H 41.4910141213 35.0776140201 53.6045266213
H 44.7473856558 51.1611194759 53.6046127253
H 41.4911388566 51.1609675616 67.1295515233
H 45.4303734129 49.5348882111 53.9516569051
H 40.808134183 36.703937222 53.9513971858
H 44.7475152999 36.3567935782 68.40869166
H 40.8081370358 49.5346794863 66.7826343659
H 49.8819749512 35.0776614892 61.9950884189
H 36.356637114 35.0774420053 58.7387313345
H 36.7037142851 49.5346892347 62.6781316204
H 49.5346886207 49.5347451069 58.0558268355
H 35.0774423675 44.747335741 67.1294801488
H 36.7039733387 40.8081871438 53.9513899659
H 51.1610859912 44.7474596001 53.6044917741
H 49.5345353887 40.8081016332 66.7826123337
H 41.2578523479 36.1235244206 60.9491063507
H 43.7013416304 50.1147780311 62.2281007789
H 44.9806889845 36.1236651343 59.7848595425
H 41.2579908504 50.1149910333 59.7848108901
H 44.9805018676 42.5371587353 53.3713389281
H 43.7012826812 44.9805514582 67.3628475527
H 41.257967873 43.7013260074 53.3712314784
H 42.5371709121 41.2579047602 67.3625829282
H 36.123523779 44.9807193128 59.7848892775
H 50.1146907888 43.7012625704 62.2281659786
H 36.1236372585 41.2579255057 60.9490653736
H 50.1151188491 42.5371718573 58.5055954396
H 49.8819310938 44.7474392237 52.3252559816
H 35.077623765 41.4910282713 53.6044891835
H 36.3567189612 44.7474262672 68.4086056527
H 51.1608324776 41.4910620975 67.129653571
H 36.3567144975 51.1609341666 61.9951387235
H 35.0775707594 36.3567258672 58.7385805723
H 51.1611690561 36.3568657495 61.9949490299
H 49.8819241706 51.1609544878 58.7388147823
H 44.7474341046 35.0774362377 67.1296805361
H 41.4911328924 36.3566504154 52.3252089126
H 44.747423618 49.881970698 52.3253989339
H 41.4912096032 49.8818841318 68.408824864
H 41.1670332244 66.407529627 47.0658588449
H 45.0711207695 54.3262143537 47.0656727767
H 45.0711349505 66.4076807272 39.1727199978
H 41.1670827702 54.3264487983 39.1728042977
H 47.0658285441 58.4150041306 49.1599768637
H 47.0658280543 62.3190268415 37.0787747457
H 39.1727644313 62.3190445618 49.1598755059
H 39.172781065 58.4149588761 37.0785732546
H 49.1597990193 64.3134500291 41.1670451805
H 37.0784551251 64.3133684717 45.071259986
H 49.1599185562 56.4202507358 45.0710444587
H 37.0787669359 56.4203926119 41.1670109852
H 49.1598841091 58.4144988868 47.0657999371
H 37.07852572 62.3187440413 47.0656354734
H 49.1599040888 62.3188993741 39.1725836754
H 37.078845513 58.415060334 39.1726747192
H 41.1672249464 64.3136196913 49.1600014935
H 45.0713346168 64.3135204584 37.0788231048
H 45.0714136975 56.4203850816 49.1599750458
H 41.1672499625 56.4204449069 37.0785740722
H 47.0657793399 66.4076678535 41.1671126328
H 47.0656881202 54.3262568038 45.0712204336
H 39.1725795808 66.407537078 45.0712642496
H 39.1726346631 54.3263488927 41.1673715864
H 49.7910846672 57.7837662277 38.4419490816
H 36.4475799069 62.9502410495 38.4418576619
H 36.4472668266 57.7836445004 47.7965759897
H 49.7909496867 62.9500200927 47.7964298499
H 38.4419435071 67.0385824345 40.5360962422
H 38.4418554507 53.6950559214 45.7024529207
H 47.7964771569 53.6951103689 40.5360242572
H 47.7966031617 67.0388654451 45.702526282
H 40.5361660333 55.6896934565 49.7908323886
H 45.7025994261 55.6895916019 36.4473793127
H 40.536036196 65.0442535953 36.4475291745
H 45.7025742513 65.0443177808 49.7912314693
H 40.5359525067 67.038759251 38.4420261685
H 45.7025294591 53.6951872764 38.4419632799
H 40.5360738409 53.6950044301 47.7965231738
H 45.7024393329 67.0385790022 47.7964958672
H 49.7909404971 55.6896863194 40.5359267766
H 36.4474876248 55.6896764192 45.7023213794
H 36.4472917254 65.044206133 40.5360649514
H 49.7909496936 65.0442130045 45.7024640213
H 38.4420374519 57.783801965 49.790849481
H 38.4419518585 62.9502688839 36.4472222827
H 47.7965307455 57.7838169118 36.4474683626
H 47.7966327657 62.9502737236 49.7911290042
H 40.9110690982 54.054136581 45.3277577008
H 44.9806318325 67.3624531944 43.7013314784
H 45.3276379156 54.0543091822 40.9108780903
H 40.9109201919 66.6797386306 40.9108350124
H 43.7013190083 58.5056519637 36.1235910313
H 45.32750229 62.5754501877 49.432146853
H 42.5371631231 62.2282302884 36.1236438989
H 40.9109040032 58.15855097 49.4318630455
H 36.1236175824 60.9492041003 41.2580364774
H 49.4317426738 62.575183214 45.3276439523
H 36.1234114517 59.78495347 44.9804079125
H 49.4321233168 58.1586300542 40.9108148844
H 36.8065357829 58.1588439464 45.3277177862
H 50.1146622024 62.2282082907 43.7013591851
H 36.806544217 62.575477922 40.9109560637
H 50.1151227505 58.5056967698 42.5370638005
H 40.9108665171 62.5752323596 36.806567191
H 44.9805448248 60.949157942 50.1150679339
H 45.3275745406 58.1586109782 36.8065935489
H 41.2580004539 59.7847937839 50.1148671707
H 43.701393715 53.3713448924 41.2580688203
H 45.3275720362 66.6795439868 45.3276250108
H 42.537224863 53.3710744726 44.9804315833
H 42.5371525675 67.3627862371 41.2579115282
H 49.5348141977 62.6781212649 36.7037957978
H 36.3566767078 58.738830764 35.0774763696
H 36.7036801036 62.678038438 49.534598836
H 49.8816347059 58.738869523 51.1611338294
H 35.0774670283 67.1294898351 44.7474325212
H 36.7039227753 53.9513178187 40.8080363368
H 49.5349464496 53.9516489746 45.4303046049
H 51.160982605 67.1293701982 41.4911140096
H 45.4304459394 53.951311137 49.5346742257
H 41.4910141213 52.3253140201 36.3568266213
H 44.7473856558 68.4088194759 36.3569127253
H 41.4911388566 68.408667565 49.8818515233
H 45.4303734129 66.7825882111 36.7039569051
H 40.808134183 53.9516372186 36.7036971858
H 44.7475152999 53.6044935782 51.16099166
H 40.8081370358 66.7823794863 49.5349343659
H 49.8819749512 52.3253614857 44.7473884189
H 36.356637114 52.3251420019 41.4910313345
H 36.7037142851 66.7823892347 45.4304316204
H 49.5346886207 66.7824451069 40.8081268355
H 35.0774423675 61.995035741 49.8817801523
H 36.7039733387 58.0558871404 36.7036899693
H 51.1610859912 61.9951596001 36.3567917741
H 49.5345353887 58.0558016332 49.5349123337
H 41.2578523479 53.3712244206 43.7014063507
H 43.7013416304 67.3624780276 44.9804007789
H 44.9806889845 53.3713651343 42.5371595425
H 41.2579908504 67.3626910333 42.5371108901
H 44.9805018676 59.7848587353 36.1236389247
H 43.7012826812 62.2282514582 50.1151475527
H 41.257967873 60.9490260074 36.1235314784
H 42.5371709121 58.5056047602 50.1148829282
H 36.123523779 62.2284193128 42.5371892775
H 50.1146907888 60.9489625738 44.9804659786
H 36.1236372585 58.5056255057 43.7013653736
H 50.1151188491 59.7848718573 41.257895443
H 49.8819310938 61.9951392237 35.0775559816
H 35.077623765 58.7387282678 36.3567891835
H 36.3567189612 61.9951262672 51.1609056527
H 51.1608324776 58.7387620975 49.881953571
H 36.3567144975 68.4086341666 44.7474387235
H 35.0775707594 53.6044258672 41.4908805723
H 51.1611690561 53.6045657495 44.7472490299
H 49.8819241706 68.4086544878 41.4911147823
H 44.7474341046 52.3251362377 49.8819805361
H 41.4911328924 53.6043504154 35.0775089126
H 44.747423618 67.129670698 35.0776989374
H 41.4912096032 67.1295841352 51.161124864
H 41.1670332244 66.407529627 64.3135588449
H 45.0711207695 54.3262143537 64.3133727767
H 45.0711349505 66.4076807272 56.4204199978
H 41.1670827702 54.3264487983 56.4205043011
H 47.0658285441 58.4150041306 66.4076768603
H 47.0658280543 62.3190268415 54.3264747457
H 39.1727644313 62.3190445618 66.4075755059
H 39.172781065 58.4149588761 54.3262732546
H 49.1597990193 64.3134500291 58.4147451771
H 37.0784551251 64.3133684717 62.318959986
H 49.1599185562 56.4202507358 62.3187444587
H 37.0787669359 56.4203926119 58.4147109818
H 49.1598841091 58.4144988868 64.3134999371
H 37.07852572 62.3187440413 64.3133354699
H 49.1599040888 62.3188993741 56.4202836754
H 37.078845513 58.415060334 56.4203747192
H 41.1672249464 64.3136196913 66.4077014935
H 45.0713346168 64.3135204584 54.3265231048
H 45.0714136975 56.4203850816 66.4076750424
H 41.1672499625 56.4204449069 54.3262740687
H 47.0657793399 66.4076678535 58.4148126328
H 47.0656881202 54.3262568038 62.3189204336
H 39.1725795808 66.407537078 62.3189642496
H 39.1726346631 54.3263488927 58.4150715864
H 49.7910846672 57.7837662277 55.6896490816
H 36.4475799069 62.9502410495 55.6895576619
H 36.4472668266 57.7836445004 65.0442759897
H 49.7909496867 62.9500200927 65.0441298499
H 38.4419435071 67.0385824345 57.7837962456
H 38.4418554507 53.6950559214 62.9501529207
H 47.7964771569 53.6951103689 57.7837242572
H 47.7966031617 67.0388654451 62.950226282
H 40.5361660333 55.6896934565 67.0385323886
H 45.7025994261 55.6895916019 53.6950793127
H 40.536036196 65.0442535953 53.6952291745
H 45.7025742513 65.0443177808 67.0389314693
H 40.5359525067 67.038759251 55.6897261719
H 45.7025294591 53.6951872764 55.6896632764
H 40.5360738409 53.6950044301 65.0442231738
H 45.7024393329 67.0385790022 65.0441958638
H 49.7909404971 55.6896863194 57.7836267766
H 36.4474876248 55.6896764192 62.9500213828
H 36.4472917254 65.044206133 57.7837649549
H 49.7909496936 65.0442130045 62.9501640213
H 38.4420374519 57.783801965 67.0385494776
H 38.4419518585 62.9502688839 53.6949222827
H 47.7965307455 57.7838169118 53.6951683591
H 47.7966327657 62.9502737236 67.0388290042
H 40.9110690982 54.054136581 62.5754576974
H 44.9806318325 67.3624531944 60.9490314784
H 45.3276379156 54.0543091822 58.1585780903
H 40.9109201919 66.6797386306 58.1585350124
H 43.7013190083 58.5056519637 53.3712910313
H 45.32750229 62.5754501877 66.679846853
H 42.5371631231 62.2282302884 53.3713438989
H 40.9109040032 58.15855097 66.6795630455
H 36.1236175824 60.9492041003 58.5057364774
H 49.4317426738 62.575183214 62.5753439523
H 36.1234114517 59.78495347 62.2281079091
H 49.4321233168 58.1586300542 58.1585148878
H 36.8065357829 58.1588439464 62.5754177862
H 50.1146622024 62.2282082907 60.9490591851
H 36.806544217 62.575477922 58.1586560672
H 50.1151227505 58.5056967698 59.7847638005
H 40.9108665171 62.5752323596 54.054267191
H 44.9805448248 60.949157942 67.3627679339
H 45.3275745406 58.1586109782 54.0542935455
H 41.2580004539 59.7847937839 67.3625671707
H 43.701393715 53.3713448924 58.5057688203
H 45.3275720362 66.6795439868 62.5753250108
H 42.537224863 53.3710744726 62.2281315833
H 42.5371525675 67.3627862371 58.5056115282
H 49.5348141977 62.6781212649 53.9514957978
H 36.3566767078 58.738830764 52.3251763696
H 36.7036801036 62.678038438 66.782298836
H 49.8816347059 58.738869523 68.4088338294
H 35.0774670283 67.1294898351 61.9951325212
H 36.7039227753 53.9513178187 58.0557363368
H 49.5349464496 53.9516489746 62.6780046014
H 51.160982605 67.1293701982 58.7388140096
H 45.4304459394 53.951311137 66.7823742257
H 41.4910141213 52.3253140201 53.6045266213
H 44.7473856558 68.4088194759 53.6046127253
H 41.4911388566 68.408667565 67.1295515233
H 45.4303734129 66.7825882111 53.9516569051
H 40.808134183 53.9516372186 53.9513971858
H 44.7475152999 53.6044935782 68.40869166
H 40.8081370358 66.7823794863 66.7826343659
H 49.8819749512 52.3253614857 61.9950884189
H 36.356637114 52.3251420019 58.7387313345
H 36.7037142851 66.7823892347 62.6781316204
H 49.5346886207 66.7824451069 58.0558268355
H 35.0774423675 61.995035741 67.1294801488
H 36.7039733387 58.0558871404 53.9513899659
H 51.1610859912 61.9951596001 53.6044917741
H 49.5345353887 58.0558016332 66.7826123337
H 41.2578523479 53.3712244206 60.9491063507
H 43.7013416304 67.3624780276 62.2281007789
H 44.9806889845 53.3713651343 59.7848595425
H 41.2579908504 67.3626910333 59.7848108901
H 44.9805018676 59.7848587353 53.3713389281
H 43.7012826812 62.2282514582 67.3628475527
H 41.257967873 60.9490260074 53.3712314784
H 42.5371709121 58.5056047602 67.3625829282
H 36.123523779 62.2284193128 59.7848892775
H 50.1146907888 60.9489625738 62.2281659786
H 36.1236372585 58.5056255057 60.9490653736
H 50.1151188491 59.7848718573 58.5055954396
H 49.8819310938 61.9951392237 52.3252559816
H 35.077623765 58.7387282678 53.6044891835
H 36.3567189612 61.9951262672 68.4086056527
H 51.1608324776 58.7387620975 67.129653571
H 36.3567144975 68.4086341666 61.9951387235
H 35.0775707594 53.6044258672 58.7385805723
H 51.1611690561 53.6045657495 61.9949490299
H 49.8819241706 68.4086544878 58.7388147823
H 44.7474341046 52.3251362377 67.1296805361
H 41.4911328924 53.6043504154 52.3252089126
H 44.747423618 67.129670698 52.3253989339
H 41.4912096032 67.1295841352 68.408824864
H 58.4147332244 49.159829627 47.0658588449
H 62.3188207695 37.0785143537 47.0656727767
H 62.3188349505 49.1599807272 39.1727199978
H 58.4147827667 37.0787487983 39.1728042977
H 64.3135285441 41.1673041306 49.1599768637
H 64.3135280543 45.0713268415 37.0787747457
H 56.4204644313 45.0713445618 49.1598755059
H 56.420481065 41.1672588726 37.0785732546
H 66.4074990193 47.0657500291 41.1670451805
H 54.3261551286 47.0656684717 45.071259986
H 66.4076185562 39.1725507358 45.0710444587
H 54.3264669359 39.1726926119 41.1670109852
H 66.4075841091 41.1667988868 47.0657999371
H 54.3262257234 45.0710440413 47.0656354734
H 66.4076040888 45.0711993741 39.1725836754
H 54.3265455165 41.1673603374 39.1726747192
H 58.4149249464 47.0659196913 49.1600014935
H 62.3190346202 47.0658204584 37.0788231048
H 62.3191136975 39.1726850816 49.1599750458
H 58.4149499625 39.1727449069 37.0785740722
H 64.3134793433 49.1599678535 41.1671126328
H 64.3133881237 37.0785568072 45.0712204336
H 56.4202795808 49.159837078 45.0712642496
H 56.4203346631 37.0786488927 41.1673715864
H 67.0387846672 40.5360662277 38.4419490816
H 53.6952799069 45.7025410495 38.4418576619
H 53.6949668232 40.5359445004 47.7965759897
H 67.0386496867 45.7023200927 47.7964298499
H 55.6896435071 49.7908824345 40.5360962422
H 55.6895554507 36.4473559214 45.7024529207
H 65.0441771569 36.4474103689 40.5360242572
H 65.0443031617 49.7911654451 45.702526282
H 57.7838660333 38.4419934565 49.7908323886
H 62.9502994261 38.4418916019 36.4473793127
H 57.783736196 47.7965535953 36.4475291745
H 62.9502742513 47.7966177808 49.7912314693
H 57.7836525033 49.791059251 38.4420261685
H 62.9502294591 36.4474872764 38.4419632799
H 57.7837738409 36.4473044335 47.7965231738
H 62.9501393295 49.7908790022 47.7964958672
H 67.0386404971 38.4419863194 40.5359267766
H 53.6951876248 38.4419764192 45.7023213794
H 53.6949917254 47.796506133 40.5360649514
H 67.0386496936 47.7965130045 45.7024640213
H 55.6897374519 40.5361019684 49.790849481
H 55.6896518585 45.7025688839 36.4472222827
H 65.0442307455 40.5361169153 36.4474683626
H 65.0443327691 45.702573727 49.7911290042
H 58.1587690982 36.806436581 45.3277577008
H 62.2283318325 50.1147531944 43.7013314784
H 62.5753379156 36.8066091822 40.9108780903
H 58.1586201919 49.4320386271 40.9108350124
H 60.9490190083 41.2579519637 36.1235910313
H 62.57520229 45.3277501912 49.432146853
H 59.7848631231 44.9805302884 36.1236438989
H 58.1586040032 40.91085097 49.4318630455
H 53.3713175824 43.7015041003 41.2580364774
H 66.6794426738 45.327483214 45.3276439523
H 53.3711114517 42.5372534665 44.9804079125
H 66.6798233168 40.9109300542 40.9108148844
H 54.0542357795 40.9111439429 45.3277177862
H 67.3623622024 44.9805082907 43.7013591851
H 54.054244217 45.3277779255 40.9109560637
H 67.3628227505 41.2579967698 42.5370638005
H 58.1585665171 45.3275323596 36.806567191
H 62.2282448213 43.701457942 50.1150679339
H 62.5752745406 40.9109109782 36.8065935489
H 58.5057004573 42.5370937839 50.1148671707
H 60.949093715 36.1236448889 41.2580688203
H 62.5752720397 49.4318439868 45.3276250108
H 59.7849248664 36.1233744726 44.9804315833
H 59.7848525675 50.1150862371 41.2579115282
H 66.7825141977 45.4304212649 36.7037957978
H 53.6043767078 41.491130764 35.0774763696
H 53.9513801002 45.430338438 49.534598836
H 67.1293347059 41.491169523 51.1611338294
H 52.3251670283 49.8817898351 44.7474325212
H 53.9516227753 36.7036178187 40.8080363368
H 66.7826464496 36.7039489746 45.4303046049
H 68.408682605 49.8816701982 41.4911140096
H 62.678145936 36.703611137 49.5346742257
H 58.7387141213 35.0776140201 36.3568266213
H 61.9950856558 51.1611194759 36.3569127253
H 58.7388388566 51.1609675616 49.8818515233
H 62.6780734129 49.5348882111 36.7039569051
H 58.055834183 36.703937222 36.7036971858
H 61.9952152999 36.3567935782 51.16099166
H 58.0558370392 49.5346794863 49.5349343659
H 67.1296749512 35.0776614892 44.7473884189
H 53.604337114 35.0774420053 41.4910313345
H 53.9514142886 49.5346892347 45.4304316204
H 66.7823886241 49.5347451069 40.8081268355
H 52.3251423641 44.747335741 49.8817801523
H 53.9516733387 40.8081871438 36.7036899693
H 68.4087859946 44.7474596001 36.3567917741
H 66.7822353887 40.8081016332 49.5349123337
H 58.5055523479 36.1235244206 43.7014063507
H 60.9490416269 50.1147780311 44.9804007789
H 62.2283889879 36.1236651343 42.5371595425
H 58.5056908504 50.1149910333 42.5371108901
H 62.2282018676 42.5371587353 36.1236389247
H 60.9489826812 44.9805514582 50.1151475527
H 58.505667873 43.7013260074 36.1235314784
H 59.7848709121 41.2579047602 50.1148829282
H 53.371223779 44.9807193128 42.5371892775
H 67.3623907888 43.7012625704 44.9804659786
H 53.3713372585 41.2579255057 43.7013653736
H 67.3628188456 42.5371718573 41.257895443
H 67.1296310938 44.7474392237 35.0775559816
H 52.325323765 41.4910282713 36.3567891835
H 53.6044189612 44.7474262672 51.1609056527
H 68.4085324776 41.4910620975 49.881953571
H 53.6044144975 51.1609341666 44.7474387235
H 52.3252707594 36.3567258672 41.4908805723
H 68.4088690561 36.3568657495 44.7472490299
H 67.1296241706 51.1609544878 41.4911147823
H 61.9951341046 35.0774362377 49.8819805361
H 58.7388328924 36.3566504154 35.0775089126
H 61.995123618 49.881970698 35.0776989374
H 58.7389096032 49.8818841318 51.161124864
H 58.4147332244 49.159829627 64.3135588449
H 62.3188207695 37.0785143537 64.3133727767
H 62.3188349505 49.1599807272 56.4204199978
H 58.4147827667 37.0787487983 56.4205043011
H 64.3135285441 41.1673041306 66.4076768603
H 64.3135280543 45.0713268415 54.3264747457
H 56.4204644313 45.0713445618 66.4075755059
H 56.420481065 41.1672588726 54.3262732546
H 66.4074990193 47.0657500291 58.4147451771
H 54.3261551286 47.0656684717 62.318959986
H 66.4076185562 39.1725507358 62.3187444587
H 54.3264669359 39.1726926119 58.4147109818
H 66.4075841091 41.1667988868 64.3134999371
H 54.3262257234 45.0710440413 64.3133354699
H 66.4076040888 45.0711993741 56.4202836754
H 54.3265455165 41.1673603374 56.4203747192
H 58.4149249464 47.0659196913 66.4077014935
H 62.3190346202 47.0658204584 54.3265231048
H 62.3191136975 39.1726850816 66.4076750424
H 58.4149499625 39.1727449069 54.3262740687
H 64.3134793433 49.1599678535 58.4148126328
H 64.3133881237 37.0785568072 62.3189204336
H 56.4202795808 49.159837078 62.3189642496
H 56.4203346631 37.0786488927 58.4150715864
H 67.0387846672 40.5360662277 55.6896490816
H 53.6952799069 45.7025410495 55.6895576619
H 53.6949668232 40.5359445004 65.0442759897
H 67.0386496867 45.7023200927 65.0441298499
H 55.6896435071 49.7908824345 57.7837962456
H 55.6895554507 36.4473559214 62.9501529207
H 65.0441771569 36.4474103689 57.7837242572
H 65.0443031617 49.7911654451 62.950226282
H 57.7838660333 38.4419934565 67.0385323886
H 62.9502994261 38.4418916019 53.6950793127
H 57.783736196 47.7965535953 53.6952291745
H 62.9502742513 47.7966177808 67.0389314693
H 57.7836525033 49.791059251 55.6897261719
H 62.9502294591 36.4474872764 55.6896632764
H 57.7837738409 36.4473044335 65.0442231738
H 62.9501393295 49.7908790022 65.0441958638
H 67.0386404971 38.4419863194 57.7836267766
H 53.6951876248 38.4419764192 62.9500213828
H 53.6949917254 47.796506133 57.7837649549
H 67.0386496936 47.7965130045 62.9501640213
H 55.6897374519 40.5361019684 67.0385494776
H 55.6896518585 45.7025688839 53.6949222827
H 65.0442307455 40.5361169153 53.6951683591
H 65.0443327691 45.702573727 67.0388290042
H 58.1587690982 36.806436581 62.5754576974
H 62.2283318325 50.1147531944 60.9490314784
H 62.5753379156 36.8066091822 58.1585780903
H 58.1586201919 49.4320386271 58.1585350124
H 60.9490190083 41.2579519637 53.3712910313
H 62.57520229 45.3277501912 66.679846853
H 59.7848631231 44.9805302884 53.3713438989
H 58.1586040032 40.91085097 66.6795630455
H 53.3713175824 43.7015041003 58.5057364774
H 66.6794426738 45.327483214 62.5753439523
H 53.3711114517 42.5372534665 62.2281079091
H 66.6798233168 40.9109300542 58.1585148878
H 54.0542357795 40.9111439429 62.5754177862
H 67.3623622024 44.9805082907 60.9490591851
H 54.054244217 45.3277779255 58.1586560672
H 67.3628227505 41.2579967698 59.7847638005
H 58.1585665171 45.3275323596 54.054267191
H 62.2282448213 43.701457942 67.3627679339
H 62.5752745406 40.9109109782 54.0542935455
H 58.5057004573 42.5370937839 67.3625671707
H 60.949093715 36.1236448889 58.5057688203
H 62.5752720397 49.4318439868 62.5753250108
H 59.7849248664 36.1233744726 62.2281315833
H 59.7848525675 50.1150862371 58.5056115282
H 66.7825141977 45.4304212649 53.9514957978
H 53.6043767078 41.491130764 52.3251763696
H 53.9513801002 45.430338438 66.782298836
H 67.1293347059 41.491169523 68.4088338294
H 52.3251670283 49.8817898351 61.9951325212
H 53.9516227753 36.7036178187 58.0557363368
H 66.7826464496 36.7039489746 62.6780046014
H 68.408682605 49.8816701982 58.7388140096
H 62.678145936 36.703611137 66.7823742257
H 58.7387141213 35.0776140201 53.6045266213
H 61.9950856558 51.1611194759 53.6046127253
H 58.7388388566 51.1609675616 67.1295515233
H 62.6780734129 49.5348882111 53.9516569051
H 58.055834183 36.703937222 53.9513971858
H 61.9952152999 36.3567935782 68.40869166
H 58.0558370392 49.5346794863 66.7826343659
H 67.1296749512 35.0776614892 61.9950884189
H 53.604337114 35.0774420053 58.7387313345
H 53.9514142886 49.5346892347 62.6781316204
H 66.7823886241 49.5347451069 58.0558268355
H 52.3251423641 44.747335741 67.1294801488
H 53.9516733387 40.8081871438 53.9513899659
H 68.4087859946 44.7474596001 53.6044917741
H 66.7822353887 40.8081016332 66.7826123337
H 58.5055523479 36.1235244206 60.9491063507
H 60.9490416269 50.1147780311 62.2281007789
H 62.2283889879 36.1236651343 59.7848595425
H 58.5056908504 50.1149910333 59.7848108901
H 62.2282018676 42.5371587353 53.3713389281
H 60.9489826812 44.9805514582 67.3628475527
H 58.505667873 43.7013260074 53.3712314784
H 59.7848709121 41.2579047602 67.3625829282
H 53.371223779 44.9807193128 59.7848892775
H 67.3623907888 43.7012625704 62.2281659786
H 53.3713372585 41.2579255057 60.9490653736
H 67.3628188456 42.5371718573 58.5055954396
H 67.1296310938 44.7474392237 52.3252559816
H 52.325323765 41.4910282713 53.6044891835
H 53.6044189612 44.7474262672 68.4086056527
H 68.4085324776 41.4910620975 67.129653571
H 53.6044144975 51.1609341666 61.9951387235
H 52.3252707594 36.3567258672 58.7385805723
H 68.4088690561 36.3568657495 61.9949490299
H 67.1296241706 51.1609544878 58.7388147823
H 61.9951341046 35.0774362377 67.1296805361
H 58.7388328924 36.3566504154 52.3252089126
H 61.995123618 49.881970698 52.3253989339
H 58.7389096032 49.8818841318 68.408824864
H 58.4147332244 66.407529627 47.0658588449
H 62.3188207695 54.3262143537 47.0656727767
H 62.3188349505 66.4076807272 39.1727199978
H 58.4147827667 54.3264487983 39.1728042977
H 64.3135285441 58.4150041306 49.1599768637
H 64.3135280543 62.3190268415 37.0787747457
H 56.4204644313 62.3190445618 49.1598755059
H 56.420481065 58.4149588761 37.0785732546
H 66.4074990193 64.3134500291 41.1670451805
H 54.3261551286 64.3133684717 45.071259986
H 66.4076185562 56.4202507358 45.0710444587
H 54.3264669359 56.4203926119 41.1670109852
H 66.4075841091 58.4144988868 47.0657999371
H 54.3262257234 62.3187440413 47.0656354734
H 66.4076040888 62.3188993741 39.1725836754
H 54.3265455165 58.415060334 39.1726747192
H 58.4149249464 64.3136196913 49.1600014935
H 62.3190346202 64.3135204584 37.0788231048
H 62.3191136975 56.4203850816 49.1599750458
H 58.4149499625 56.4204449069 37.0785740722
H 64.3134793433 66.4076678535 41.1671126328
H 64.3133881237 54.3262568038 45.0712204336
H 56.4202795808 66.407537078 45.0712642496
H 56.4203346631 54.3263488927 41.1673715864
H 67.0387846672 57.7837662277 38.4419490816
H 53.6952799069 62.9502410495 38.4418576619
H 53.6949668232 57.7836445004 47.7965759897
H 67.0386496867 62.9500200927 47.7964298499
H 55.6896435071 67.0385824345 40.5360962422
H 55.6895554507 53.6950559214 45.7024529207
H 65.0441771569 53.6951103689 40.5360242572
H 65.0443031617 67.0388654451 45.702526282
H 57.7838660333 55.6896934565 49.7908323886
H 62.9502994261 55.6895916019 36.4473793127
H 57.783736196 65.0442535953 36.4475291745
H 62.9502742513 65.0443177808 49.7912314693
H 57.7836525033 67.038759251 38.4420261685
H 62.9502294591 53.6951872764 38.4419632799
H 57.7837738409 53.6950044301 47.7965231738
H 62.9501393295 67.0385790022 47.7964958672
H 67.0386404971 55.6896863194 40.5359267766
H 53.6951876248 55.6896764192 45.7023213794
H 53.6949917254 65.044206133 40.5360649514
H 67.0386496936 65.0442130045 45.7024640213
H 55.6897374519 57.783801965 49.790849481
H 55.6896518585 62.9502688839 36.4472222827
H 65.0442307455 57.7838169118 36.4474683626
H 65.0443327691 62.9502737236 49.7911290042
H 58.1587690982 54.054136581 45.3277577008
H 62.2283318325 67.3624531944 43.7013314784
H 62.5753379156 54.0543091822 40.9108780903
H 58.1586201919 66.6797386306 40.9108350124
H 60.9490190083 58.5056519637 36.1235910313
H 62.57520229 62.5754501877 49.432146853
H 59.7848631231 62.2282302884 36.1236438989
H 58.1586040032 58.15855097 49.4318630455
H 53.3713175824 60.9492041003 41.2580364774
H 66.6794426738 62.575183214 45.3276439523
H 53.3711114517 59.78495347 44.9804079125
H 66.6798233168 58.1586300542 40.9108148844
H 54.0542357795 58.1588439464 45.3277177862
H 67.3623622024 62.2282082907 43.7013591851
H 54.054244217 62.575477922 40.9109560637
H 67.3628227505 58.5056967698 42.5370638005
H 58.1585665171 62.5752323596 36.806567191
H 62.2282448213 60.949157942 50.1150679339
H 62.5752745406 58.1586109782 36.8065935489
H 58.5057004573 59.7847937839 50.1148671707
H 60.949093715 53.3713448924 41.2580688203
H 62.5752720397 66.6795439868 45.3276250108
H 59.7849248664 53.3710744726 44.9804315833
H 59.7848525675 67.3627862371 41.2579115282
H 66.7825141977 62.6781212649 36.7037957978
H 53.6043767078 58.738830764 35.0774763696
H 53.9513801002 62.678038438 49.534598836
H 67.1293347059 58.738869523 51.1611338294
H 52.3251670283 67.1294898351 44.7474325212
H 53.9516227753 53.9513178187 40.8080363368
H 66.7826464496 53.9516489746 45.4303046049
H 68.408682605 67.1293701982 41.4911140096
H 62.678145936 53.951311137 49.5346742257
H 58.7387141213 52.3253140201 36.3568266213
H 61.9950856558 68.4088194759 36.3569127253
H 58.7388388566 68.408667565 49.8818515233
H 62.6780734129 66.7825882111 36.7039569051
H 58.055834183 53.9516372186 36.7036971858
H 61.9952152999 53.6044935782 51.16099166
H 58.0558370392 66.7823794863 49.5349343659
H 67.1296749512 52.3253614857 44.7473884189
H 53.604337114 52.3251420019 41.4910313345
H 53.9514142886 66.7823892347 45.4304316204
H 66.7823886241 66.7824451069 40.8081268355
H 52.3251423641 61.995035741 49.8817801523
H 53.9516733387 58.0558871404 36.7036899693
H 68.4087859946 61.9951596001 36.3567917741
H 66.7822353887 58.0558016332 49.5349123337
H 58.5055523479 53.3712244206 43.7014063507
H 60.9490416269 67.3624780276 44.9804007789
H 62.2283889879 53.3713651343 42.5371595425
H 58.5056908504 67.3626910333 42.5371108901
H 62.2282018676 59.7848587353 36.1236389247
H 60.9489826812 62.2282514582 50.1151475527
H 58.505667873 60.9490260074 36.1235314784
H 59.7848709121 58.5056047602 50.1148829282
H 53.371223779 62.2284193128 42.5371892775
H 67.3623907888 60.9489625738 44.9804659786
H 53.3713372585 58.5056255057 43.7013653736
H 67.3628188456 59.7848718573 41.257895443
H 67.1296310938 61.9951392237 35.0775559816
H 52.325323765 58.7387282678 36.3567891835
H 53.6044189612 61.9951262672 51.1609056527
H 68.4085324776 58.7387620975 49.881953571
H 53.6044144975 68.4086341666 44.7474387235
H 52.3252707594 53.6044258672 41.4908805723
H 68.4088690561 53.6045657495 44.7472490299
H 67.1296241706 68.4086544878 41.4911147823
H 61.9951341046 52.3251362377 49.8819805361
H 58.7388328924 53.6043504154 35.0775089126
H 61.995123618 67.129670698 35.0776989374
H 58.7389096032 67.1295841352 51.161124864
H 58.4147332244 66.407529627 64.3135588449
H 62.3188207695 54.3262143537 64.3133727767
H 62.3188349505 66.4076807272 56.4204199978
H 58.4147827667 54.3264487983 56.4205043011
H 64.3135285441 58.4150041306 66.4076768603
H 64.3135280543 62.3190268415 54.3264747457
H 56.4204644313 62.3190445618 66.4075755059
H 56.420481065 58.4149588761 54.3262732546
H 66.4074990193 64.3134500291 58.4147451771
H 54.3261551286 64.3133684717 62.318959986
H 66.4076185562 56.4202507358 62.3187444587
H 54.3264669359 56.4203926119 58.4147109818
H 66.4075841091 58.4144988868 64.3134999371
H 54.3262257234 62.3187440413 64.3133354699
H 66.4076040888 62.3188993741 56.4202836754
H 54.3265455165 58.415060334 56.4203747192
H 58.4149249464 64.3136196913 66.4077014935
H 62.3190346202 64.3135204584 54.3265231048
H 62.3191136975 56.4203850816 66.4076750424
H 58.4149499625 56.4204449069 54.3262740687
H 64.3134793433 66.4076678535 58.4148126328
H 64.3133881237 54.3262568038 62.3189204336
H 56.4202795808 66.407537078 62.3189642496
H 56.4203346631 54.3263488927 58.4150715864
H 67.0387846672 57.7837662277 55.6896490816
H 53.6952799069 62.9502410495 55.6895576619
H 53.6949668232 57.7836445004 65.0442759897
H 67.0386496867 62.9500200927 65.0441298499
H 55.6896435071 67.0385824345 57.7837962456
H 55.6895554507 53.6950559214 62.9501529207
H 65.0441771569 53.6951103689 57.7837242572
H 65.0443031617 67.0388654451 62.950226282
H 57.7838660333 55.6896934565 67.0385323886
H 62.9502994261 55.6895916019 53.6950793127
H 57.783736196 65.0442535953 53.6952291745
H 62.9502742513 65.0443177808 67.0389314693
H 57.7836525033 67.038759251 55.6897261719
H 62.9502294591 53.6951872764 55.6896632764
H 57.7837738409 53.6950044301 65.0442231738
H 62.9501393295 67.0385790022 65.0441958638
H 67.0386404971 55.6896863194 57.7836267766
H 53.6951876248 55.6896764192 62.9500213828
H 53.6949917254 65.044206133 57.7837649549
H 67.0386496936 65.0442130045 62.9501640213
H 55.6897374519 57.783801965 67.0385494776
H 55.6896518585 62.9502688839 53.6949222827
H 65.0442307455 57.7838169118 53.6951683591
H 65.0443327691 62.9502737236 67.0388290042
H 58.1587690982 54.054136581 62.5754576974
H 62.2283318325 67.3624531944 60.9490314784
H 62.5753379156 54.0543091822 58.1585780903
H 58.1586201919 66.6797386306 58.1585350124
H 60.9490190083 58.5056519637 53.3712910313
H 62.57520229 62.5754501877 66.679846853
H 59.7848631231 62.2282302884 53.3713438989
H 58.1586040032 58.15855097 66.6795630455
H 53.3713175824 60.9492041003 58.5057364774
H 66.6794426738 62.575183214 62.5753439523
H 53.3711114517 59.78495347 62.2281079091
H 66.6798233168 58.1586300542 58.1585148878
H 54.0542357795 58.1588439464 62.5754177862
H 67.3623622024 62.2282082907 60.9490591851
H 54.054244217 62.575477922 58.1586560672
H 67.3628227505 58.5056967698 59.7847638005
H 58.1585665171 62.5752323596 54.054267191
H 62.2282448213 60.949157942 67.3627679339
H 62.5752745406 58.1586109782 54.0542935455
H 58.5057004573 59.7847937839 67.3625671707
H 60.949093715 53.3713448924 58.5057688203
H 62.5752720397 66.6795439868 62.5753250108
H 59.7849248664 53.3710744726 62.2281315833
H 59.7848525675 67.3627862371 58.5056115282
H 66.7825141977 62.6781212649 53.9514957978
H 53.6043767078 58.738830764 52.3251763696
H 53.9513801002 62.678038438 66.782298836
H 67.1293347059 58.738869523 68.4088338294
H 52.3251670283 67.1294898351 61.9951325212
H 53.9516227753 53.9513178187 58.0557363368
H 66.7826464496 53.9516489746 62.6780046014
H 68.408682605 67.1293701982 58.7388140096
H 62.678145936 53.951311137 66.7823742257
H 58.7387141213 52.3253140201 53.6045266213
H 61.9950856558 68.4088194759 53.6046127253
H 58.7388388566 68.408667565 67.1295515233
H 62.6780734129 66.7825882111 53.9516569051
H 58.055834183 53.9516372186 53.9513971858
H 61.9952152999 53.6044935782 68.40869166
H 58.0558370392 66.7823794863 66.7826343659
H 67.1296749512 52.3253614857 61.9950884189
H 53.604337114 52.3251420019 58.7387313345
H 53.9514142886 66.7823892347 62.6781316204
H 66.7823886241 66.7824451069 58.0558268355
H 52.3251423641 61.995035741 67.1294801488
H 53.9516733387 58.0558871404 53.9513899659
H 68.4087859946 61.9951596001 53.6044917741
H 66.7822353887 58.0558016332 66.7826123337
H 58.5055523479 53.3712244206 60.9491063507
H 60.9490416269 67.3624780276 62.2281007789
H 62.2283889879 53.3713651343 59.7848595425
H 58.5056908504 67.3626910333 59.7848108901
H 62.2282018676 59.7848587353 53.3713389281
H 60.9489826812 62.2282514582 67.3628475527
H 58.505667873 60.9490260074 53.3712314784
H 59.7848709121 58.5056047602 67.3625829282
H 53.371223779 62.2284193128 59.7848892775
H 67.3623907888 60.9489625738 62.2281659786
H 53.3713372585 58.5056255057 60.9490653736
H 67.3628188456 59.7848718573 58.5055954396
H 67.1296310938 61.9951392237 52.3252559816
H 52.325323765 58.7387282678 53.6044891835
H 53.6044189612 61.9951262672 68.4086056527
H 68.4085324776 58.7387620975 67.129653571
H 53.6044144975 68.4086341666 61.9951387235
H 52.3252707594 53.6044258672 58.7385805723
H 68.4088690561 53.6045657495 61.9949490299
H 67.1296241706 68.4086544878 58.7388147823
H 61.9951341046 52.3251362377 67.1296805361
H 58.7388328924 53.6043504154 52.3252089126
H 61.995123618 67.129670698 52.3253989339
H 58.7389096032 67.1295841352 68.408824864
C 40.9990575671 34.615808667 45.2394318807
C 45.2393990929 51.6224738705 45.2393677986
C 45.239438804 34.6159870669 40.9990837008
C 40.9990289463 51.6226719466 40.9990861397
C 45.23942424 40.9991147122 34.6159611436
C 45.2393972439 45.2394828615 51.6227806381
C 40.9991191035 45.2394424536 34.6159345476
C 40.9990800133 40.9990293982 51.6225080244
C 34.6158916595 45.239484024 40.9990494193
C 51.6224004781 45.2393046479 45.2393990204
C 34.6158797896 40.9990418027 45.2393429068
C 51.6227768333 40.9991243157 40.9989795592
C 49.6229890349 43.2397962347 36.6156198705
C 36.6156474358 42.9988051508 36.6155122552
C 36.6155254083 43.2397171747 49.622861909
C 49.6228042051 42.9987333865 49.622987148
C 36.615541121 49.6228365445 43.2397966452
C 36.6155785657 36.6155266605 42.9986633057
C 49.6229932537 36.6156508508 43.2396691122
C 49.6228957628 49.6229013062 42.9987629732
C 43.2398019368 36.6154940658 49.622922138
C 42.9987814214 36.6156272042 36.6155932332
C 43.2397223421 49.6230196875 36.6157183894
C 42.9987962544 49.6229011199 49.623019177
C 40.8876740834 49.934671166 46.3368446655
C 45.3505832622 36.303638102 46.3367395787
C 45.3505965877 49.9348464096 39.9016710437
C 40.8877053638 36.3038588208 39.9017592933
C 46.3368538758 40.8878696999 49.9348297621
C 46.336841523 45.3507389917 36.3039202295
C 39.9017302481 45.3507369806 49.9347682361
C 39.9017159636 40.887824028 36.3036826493
C 49.9346810145 46.3367819598 40.887688637
C 36.3035881664 46.3366816127 45.3506516045
C 49.9347750903 39.9015136308 45.350527421
C 36.303925973 39.9017049665 40.8876555456
C 49.9347321505 40.8875385648 46.3367510691
C 36.3036092224 45.3505171241 46.3367360361
C 49.9347548208 45.3506530153 39.9015663846
C 36.3039546973 40.8879003387 39.9016009973
C 40.8878245351 46.3369068193 49.9348310591
C 45.3507206815 46.336862917 36.3039418857
C 45.3507638007 39.9016893193 49.9348308694
C 40.8878287021 39.9016870047 36.3036874408
C 46.3367873963 49.9348276475 40.887746848
C 46.3367311722 36.3036698516 45.3506333564
C 39.901568413 49.9346922565 45.3506859032
C 39.9015965233 36.3038000303 40.887907224
C 49.5116935834 41.310934311 37.7129792392
C 36.7269447259 44.9276797136 37.7128732935
C 36.7267507065 41.3108520808 48.5254811118
C 49.5115642291 44.9275178888 48.5254759444
C 37.7129306766 49.5115270465 41.3109437213
C 37.7129211248 36.7267836531 44.9275527533
C 48.5254768275 36.7268484113 41.3108641646
C 48.5255248382 49.5117071574 44.9276334759
C 41.3109915837 37.7129430811 49.5115212617
C 44.9276905244 37.7129712397 36.7268247164
C 41.3108869695 48.5255515066 36.726944957
C 44.9276703619 48.5255271494 49.5117659686
C 41.3108381861 49.5116780915 37.713066209
C 44.9276561498 36.7268840002 37.7129901535
C 41.3109662985 36.7267534282 48.5254709322
C 44.9276049448 49.5115483405 48.5255345452
C 49.5115900903 37.713004683 41.3108021108
C 36.7268608779 37.7129694528 44.9274822136
C 36.7267505133 48.5254365886 41.3109478194
C 49.5115764371 48.5255096878 44.9276134376
C 37.7129830302 41.310913631 49.5115165116
C 37.7130312755 44.9276801551 36.7266946308
C 48.5255254177 41.3109718868 36.7268791777
C 48.5255186394 44.9276413375 49.5116919725
C 41.4489851363 35.9890083907 44.7895685385
C 44.789558352 50.249251173 44.7895015553
C 44.7896094121 35.9891931411 41.4489832287
C 41.4489491266 50.2494722091 41.4489166733
C 44.7895215247 41.4489679576 35.9891631888
C 44.7894989613 44.7896296506 50.2495689377
C 41.4489665019 44.7895249432 35.9891394525
C 41.4489661363 41.4488976387 50.2493018605
C 35.9891162647 44.7896927461 41.4489949606
C 50.2491604052 44.7894625755 44.7895377169
C 35.9890826351 41.4490278037 44.7895237842
C 50.2495635874 41.4489833771 41.4488696043
C 50.0728896736 44.6130002944 36.1657597122
C 36.1657957979 41.6255701935 36.16569048
C 36.1656599688 44.612927823 50.072726669
C 50.0726292643 41.6255371159 50.0729307852
C 36.1656779754 50.0727483321 44.6129926433
C 36.1657427681 36.1656510517 41.625441843
C 50.0729565463 36.1658497521 44.6128766732
C 50.072798892 50.0727469454 41.6255586376
C 44.613014503 36.1656515277 50.0728314557
C 41.6255471333 36.1657751455 36.165727497
C 44.6129436564 50.0729345176 36.1658922849
C 41.6255936987 50.0727913065 50.0729098016
C 40.9990575671 34.615808667 62.4871318773
C 45.2393990929 51.6224738705 62.4870677986
C 45.239438804 34.6159870669 58.2467837008
C 40.9990289463 51.6226719466 58.2467861397
C 45.23942424 40.9991147122 51.863661147
C 45.2393972439 45.2394828615 68.8704806416
C 40.9991191035 45.2394424536 51.8636345476
C 40.9990800133 40.9990293982 68.8702080244
C 34.6158916595 45.239484024 58.2467494193
C 51.6224004781 45.2393046479 62.4870990204
C 34.6158797896 40.9990418027 62.4870429068
C 51.6227768333 40.9991243157 58.2466795558
C 49.6229890349 43.2397962347 53.8633198705
C 36.6156474358 42.9988051508 53.8632122552
C 36.6155254083 43.2397171747 66.870561909
C 49.6228042051 42.9987333865 66.870687148
C 36.615541121 49.6228365445 60.4874966452
C 36.6155785657 36.6155266605 60.2463633057
C 49.6229932537 36.6156508508 60.4873691122
C 49.6228957628 49.6229013062 60.2464629732
C 43.2398019368 36.6154940658 66.8706221414
C 42.9987814214 36.6156272042 53.8632932366
C 43.2397223421 49.6230196875 53.8634183894
C 42.9987962544 49.6229011199 66.870719177
C 40.8876740834 49.934671166 63.5845446655
C 45.3505832622 36.303638102 63.5844395753
C 45.3505965877 49.9348464096 57.1493710437
C 40.8877053638 36.3038588208 57.1494592933
C 46.3368538758 40.8878696999 67.1825297621
C 46.336841523 45.3507389917 53.5516202295
C 39.9017302481 45.3507369806 67.1824682361
C 39.9017159636 40.887824028 53.5513826493
C 49.9346810145 46.3367819598 58.135388637
C 36.3035881664 46.3366816127 62.598351601
C 49.9347750903 39.9015136308 62.598227421
C 36.303925973 39.9017049665 58.1353555456
C 49.9347321505 40.8875385648 63.5844510657
C 36.3036092224 45.3505171241 63.5844360361
C 49.9347548208 45.3506530153 57.1492663812
C 36.3039546973 40.8879003387 57.1493009939
C 40.8878245351 46.3369068193 67.1825310591
C 45.3507206815 46.336862917 53.5516418857
C 45.3507638007 39.9016893193 67.1825308694
C 40.8878287021 39.9016870047 53.5513874408
C 46.3367873963 49.9348276475 58.135446848
C 46.3367311722 36.3036698516 62.5983333564
C 39.901568413 49.9346922565 62.5983859032
C 39.9015965233 36.3038000303 58.135607224
C 49.5116935834 41.310934311 54.9606792357
C 36.7269447259 44.9276797136 54.9605732935
C 36.7267507065 41.3108520808 65.7731811118
C 49.5115642291 44.9275178888 65.7731759444
C 37.7129306766 49.5115270465 58.5586437213
C 37.7129211248 36.7267836531 62.1752527533
C 48.5254768275 36.7268484113 58.5585641646
C 48.5255248382 49.5117071574 62.1753334759
C 41.3109915837 37.7129430811 66.7592212617
C 44.9276905244 37.7129712397 53.9745247164
C 41.3108869695 48.5255515066 53.974644957
C 44.9276703619 48.5255271494 66.7594659686
C 41.3108381861 49.5116780915 54.9607662124
C 44.9276561498 36.7268840002 54.9606901535
C 41.3109662985 36.7267534282 65.7731709288
C 44.9276049448 49.5115483405 65.7732345452
C 49.5115900903 37.713004683 58.5585021108
C 36.7268608779 37.7129694528 62.1751822136
C 36.7267505133 48.5254365886 58.5586478194
C 49.5115764371 48.5255096878 62.1753134341
C 37.7129830302 41.310913631 66.7592165116
C 37.7130312755 44.9276801551 53.9743946308
C 48.5255254177 41.3109718868 53.9745791777
C 48.5255186394 44.9276413375 66.7593919725
C 41.4489851363 35.9890083907 62.037268542
C 44.789558352 50.249251173 62.0372015553
C 44.7896094121 35.9891931411 58.6966832253
C 41.4489491266 50.2494722091 58.6966166733
C 44.7895215247 41.4489679576 53.2368631888
C 44.7894989613 44.7896296506 67.4972689377
C 41.4489665019 44.7895249432 53.2368394525
C 41.4489661363 41.4488976387 67.4970018605
C 35.9891162647 44.7896927461 58.6966949606
C 50.2491604052 44.7894625755 62.0372377169
C 35.9890826351 41.4490278037 62.0372237842
C 50.2495635874 41.4489833771 58.6965696043
C 50.0728896736 44.6130002944 53.4134597088
C 36.1657957979 41.6255701935 53.41339048
C 36.1656599688 44.612927823 67.320426669
C 50.0726292643 41.6255371159 67.3206307886
C 36.1656779754 50.0727483321 61.8606926433
C 36.1657427681 36.1656510517 58.873141843
C 50.0729565463 36.1658497521 61.8605766732
C 50.072798892 50.0727469454 58.8732586376
C 44.613014503 36.1656515277 67.3205314591
C 41.6255471333 36.1657751455 53.4134274935
C 44.6129436564 50.0729345176 53.4135922884
C 41.6255936987 50.0727913065 67.3206098016
C 40.9990575671 51.863508667 45.2394318807
C 45.2393990929 68.8701738705 45.2393677986
C 45.239438804 51.8636870669 40.9990837008
C 40.9990289463 68.8703719466 40.9990861397
C 45.23942424 58.2468147122 34.6159611436
C 45.2393972439 62.4871828615 51.6227806381
C 40.9991191035 62.4871424536 34.6159345476
C 40.9990800133 58.2467293982 51.6225080244
C 34.6158916595 62.487184024 40.9990494193
C 51.6224004781 62.4870046479 45.2393990204
C 34.6158797896 58.2467418027 45.2393429068
C 51.6227768333 58.2468243157 40.9989795592
C 49.6229890349 60.4874962347 36.6156198705
C 36.6156474358 60.2465051508 36.6155122552
C 36.6155254083 60.4874171747 49.622861909
C 49.6228042051 60.24643339 49.622987148
C 36.615541121 66.8705365445 43.2397966452
C 36.6155785657 53.8632266605 42.9986633057
C 49.6229932537 53.8633508508 43.2396691122
C 49.6228957628 66.8706013097 42.9987629732
C 43.2398019368 53.8631940658 49.622922138
C 42.9987814214 53.8633272042 36.6155932332
C 43.2397223421 66.8707196875 36.6157183894
C 42.9987962544 66.8706011199 49.623019177
C 40.8876740834 67.182371166 46.3368446655
C 45.3505832622 53.5513381054 46.3367395787
C 45.3505965877 67.1825464096 39.9016710437
C 40.8877053638 53.5515588243 39.9017592933
C 46.3368538758 58.1355696999 49.9348297621
C 46.336841523 62.5984389917 36.3039202295
C 39.9017302481 62.5984369806 49.9347682361
C 39.9017159636 58.1355240245 36.3036826493
C 49.9346810145 63.5844819598 40.887688637
C 36.3035881664 63.5843816092 45.3506516045
C 49.9347750903 57.1492136308 45.350527421
C 36.303925973 57.1494049665 40.8876555456
C 49.9347321505 58.1352385648 46.3367510691
C 36.3036092224 62.5982171241 46.3367360361
C 49.9347548208 62.5983530153 39.9015663846
C 36.3039546973 58.1356003387 39.9016009973
C 40.8878245351 63.5846068193 49.9348310591
C 45.3507206815 63.584562917 36.3039418857
C 45.3507638007 57.1493893193 49.9348308694
C 40.8878287021 57.1493870047 36.3036874408
C 46.3367873963 67.1825276475 40.887746848
C 46.3367311722 53.5513698516 45.3506333564
C 39.901568413 67.1823922565 45.3506859032
C 39.9015965233 53.5515000303 40.887907224
C 49.5116935834 58.558634311 37.7129792392
C 36.7269447259 62.1753797136 37.7128732935
C 36.7267507065 58.5585520808 48.5254811118
C 49.5115642291 62.1752178888 48.5254759444
C 37.7129306766 66.7592270465 41.3109437213
C 37.7129211248 53.9744836531 44.9275527533
C 48.5254768275 53.9745484113 41.3108641646
C 48.5255248382 66.7594071574 44.9276334759
C 41.3109915837 54.9606430811 49.5115212617
C 44.9276905244 54.9606712397 36.7268247164
C 41.3108869695 65.7732515066 36.726944957
C 44.9276703619 65.7732271528 49.5117659686
C 41.3108381861 66.7593780915 37.713066209
C 44.9276561498 53.9745840002 37.7129901535
C 41.3109662985 53.9744534282 48.5254709322
C 44.9276049448 66.7592483371 48.5255345452
C 49.5115900903 54.960704683 41.3108021108
C 36.7268608779 54.9606694528 44.9274822136
C 36.7267505133 65.7731365886 41.3109478194
C 49.5115764371 65.7732096878 44.9276134376
C 37.7129830302 58.558613631 49.5115165116
C 37.7130312755 62.1753801551 36.7266946308
C 48.5255254177 58.5586718868 36.7268791777
C 48.5255186394 62.175341334 49.5116919725
C 41.4489851363 53.2367083907 44.7895685385
C 44.789558352 67.4969511695 44.7895015553
C 44.7896094121 53.2368931411 41.4489832287
C 41.4489491266 67.4971722091 41.4489166733
C 44.7895215247 58.6966679576 35.9891631888
C 44.7894989613 62.0373296506 50.2495689377
C 41.4489665019 62.0372249432 35.9891394525
C 41.4489661363 58.6965976387 50.2493018605
C 35.9891162647 62.0373927461 41.4489949606
C 50.2491604052 62.0371625755 44.7895377169
C 35.9890826351 58.6967278037 44.7895237842
C 50.2495635874 58.6966833771 41.4488696043
C 50.0728896736 61.8607002944 36.1657597122
C 36.1657957979 58.8732701935 36.16569048
C 36.1656599688 61.8606278264 50.072726669
C 50.0726292643 58.8732371159 50.0729307852
C 36.1656779754 67.3204483321 44.6129926433
C 36.1657427681 53.4133510517 41.625441843
C 50.0729565463 53.4135497556 44.6128766732
C 50.072798892 67.3204469454 41.6255586376
C 44.613014503 53.4133515277 50.0728314557
C 41.6255471333 53.4134751455 36.165727497
C 44.6129436564 67.320634521 36.1658922849
C 41.6255936987 67.3204913065 50.0729098016
C 40.9990575671 51.863508667 62.4871318773
C 45.2393990929 68.8701738705 62.4870677986
C 45.239438804 51.8636870669 58.2467837008
C 40.9990289463 68.8703719466 58.2467861397
C 45.23942424 58.2468147122 51.863661147
C 45.2393972439 62.4871828615 68.8704806416
C 40.9991191035 62.4871424536 51.8636345476
C 40.9990800133 58.2467293982 68.8702080244
C 34.6158916595 62.487184024 58.2467494193
C 51.6224004781 62.4870046479 62.4870990204
C 34.6158797896 58.2467418027 62.4870429068
C 51.6227768333 58.2468243157 58.2466795558
C 49.6229890349 60.4874962347 53.8633198705
C 36.6156474358 60.2465051508 53.8632122552
C 36.6155254083 60.4874171747 66.870561909
C 49.6228042051 60.24643339 66.870687148
C 36.615541121 66.8705365445 60.4874966452
C 36.6155785657 53.8632266605 60.2463633057
C 49.6229932537 53.8633508508 60.4873691122
C 49.6228957628 66.8706013097 60.2464629732
C 43.2398019368 53.8631940658 66.8706221414
C 42.9987814214 53.8633272042 53.8632932366
C 43.2397223421 66.8707196875 53.8634183894
C 42.9987962544 66.8706011199 66.870719177
C 40.8876740834 67.182371166 63.5845446655
C 45.3505832622 53.5513381054 63.5844395753
C 45.3505965877 67.1825464096 57.1493710437
C 40.8877053638 53.5515588243 57.1494592933
C 46.3368538758 58.1355696999 67.1825297621
C 46.336841523 62.5984389917 53.5516202295
C 39.9017302481 62.5984369806 67.1824682361
C 39.9017159636 58.1355240245 53.5513826493
C 49.9346810145 63.5844819598 58.135388637
C 36.3035881664 63.5843816092 62.598351601
C 49.9347750903 57.1492136308 62.598227421
C 36.303925973 57.1494049665 58.1353555456
C 49.9347321505 58.1352385648 63.5844510657
C 36.3036092224 62.5982171241 63.5844360361
C 49.9347548208 62.5983530153 57.1492663812
C 36.3039546973 58.1356003387 57.1493009939
C 40.8878245351 63.5846068193 67.1825310591
C 45.3507206815 63.584562917 53.5516418857
C 45.3507638007 57.1493893193 67.1825308694
C 40.8878287021 57.1493870047 53.5513874408
C 46.3367873963 67.1825276475 58.135446848
C 46.3367311722 53.5513698516 62.5983333564
C 39.901568413 67.1823922565 62.5983859032
C 39.9015965233 53.5515000303 58.135607224
C 49.5116935834 58.558634311 54.9606792357
C 36.7269447259 62.1753797136 54.9605732935
C 36.7267507065 58.5585520808 65.7731811118
C 49.5115642291 62.1752178888 65.7731759444
C 37.7129306766 66.7592270465 58.5586437213
C 37.7129211248 53.9744836531 62.1752527533
C 48.5254768275 53.9745484113 58.5585641646
C 48.5255248382 66.7594071574 62.1753334759
C 41.3109915837 54.9606430811 66.7592212617
C 44.9276905244 54.9606712397 53.9745247164
C 41.3108869695 65.7732515066 53.974644957
C 44.9276703619 65.7732271528 66.7594659686
C 41.3108381861 66.7593780915 54.9607662124
C 44.9276561498 53.9745840002 54.9606901535
C 41.3109662985 53.9744534282 65.7731709288
C 44.9276049448 66.7592483371 65.7732345452
C 49.5115900903 54.960704683 58.5585021108
C 36.7268608779 54.9606694528 62.1751822136
C 36.7267505133 65.7731365886 58.5586478194
C 49.5115764371 65.7732096878 62.1753134341
C 37.7129830302 58.558613631 66.7592165116
C 37.7130312755 62.1753801551 53.9743946308
C 48.5255254177 58.5586718868 53.9745791777
C 48.5255186394 62.175341334 66.7593919725
C 41.4489851363 53.2367083907 62.037268542
C 44.789558352 67.4969511695 62.0372015553
C 44.7896094121 53.2368931411 58.6966832253
C 41.4489491266 67.4971722091 58.6966166733
C 44.7895215247 58.6966679576 53.2368631888
C 44.7894989613 62.0373296506 67.4972689377
C 41.4489665019 62.0372249432 53.2368394525
C 41.4489661363 58.6965976387 67.4970018605
C 35.9891162647 62.0373927461 58.6966949606
C 50.2491604052 62.0371625755 62.0372377169
C 35.9890826351 58.6967278037 62.0372237842
C 50.2495635874 58.6966833771 58.6965696043
C 50.0728896736 61.8607002944 53.4134597088
C 36.1657957979 58.8732701935 53.41339048
C 36.1656599688 61.8606278264 67.320426669
C 50.0726292643 58.8732371159 67.3206307886
C 36.1656779754 67.3204483321 61.8606926433
C 36.1657427681 53.4133510517 58.873141843
C 50.0729565463 53.4135497556 61.8605766732
C 50.072798892 67.3204469454 58.8732586376
C 44.613014503 53.4133515277 67.3205314591
C 41.6255471333 53.4134751455 53.4134274935
C 44.6129436564 67.320634521 53.4135922884
C 41.6255936987 67.3204913065 67.3206098016
C 58.2467575671 34.615808667 45.2394318807
C 62.4870990929 51.6224738705 45.2393677986
C 62.487138804 34.6159870669 40.9990837008
C 58.2467289463 51.6226719466 40.9990861397
C 62.48712424 40.9991147122 34.6159611436
C 62.4870972405 45.2394828615 51.6227806381
C 58.2468191035 45.2394424536 34.6159345476
C 58.2467800133 40.9990293982 51.6225080244
C 51.8635916595 45.239484024 40.9990494193
C 68.8701004781 45.2393046479 45.2393990204
C 51.8635797862 40.9990418027 45.2393429068
C 68.8704768333 40.9991243157 40.9989795592
C 66.8706890349 43.2397962347 36.6156198705
C 53.8633474358 42.9988051508 36.6155122552
C 53.8632254083 43.2397171747 49.622861909
C 66.8705042051 42.9987333865 49.622987148
C 53.863241121 49.6228365445 43.2397966452
C 53.8632785657 36.6155266605 42.9986633057
C 66.8706932537 36.6156508508 43.2396691122
C 66.8705957628 49.6229013062 42.9987629732
C 60.4875019368 36.6154940658 49.622922138
C 60.2464814214 36.6156272042 36.6155932332
C 60.4874223421 49.6230196875 36.6157183894
C 60.2464962544 49.6229011199 49.623019177
C 58.1353740834 49.934671166 46.3368446655
C 62.5982832622 36.303638102 46.3367395787
C 62.5982965912 49.9348464096 39.9016710437
C 58.1354053638 36.3038588208 39.9017592933
C 63.5845538792 40.8878696999 49.9348297621
C 63.584541523 45.3507389917 36.3039202295
C 57.1494302481 45.3507369806 49.9347682361
C 57.1494159636 40.887824028 36.3036826493
C 67.1823810179 46.3367819598 40.887688637
C 53.5512881664 46.3366816127 45.3506516045
C 67.1824750869 39.9015136308 45.350527421
C 53.551625973 39.9017049665 40.8876555456
C 67.1824321505 40.8875385648 46.3367510691
C 53.5513092224 45.3505171241 46.3367360361
C 67.1824548208 45.3506530153 39.9015663846
C 53.5516546973 40.8879003387 39.9016009973
C 58.1355245351 46.3369068193 49.9348310591
C 62.5984206815 46.336862917 36.3039418857
C 62.5984638042 39.9016893193 49.9348308694
C 58.1355286987 39.9016870047 36.3036874408
C 63.5844873928 49.9348276475 40.887746848
C 63.5844311757 36.3036698516 45.3506333564
C 57.149268413 49.9346922565 45.3506859032
C 57.1492965233 36.3038000303 40.887907224
C 66.7593935834 41.310934311 37.7129792392
C 53.9746447259 44.9276797136 37.7128732935
C 53.9744507065 41.3108520808 48.5254811118
C 66.7592642291 44.9275178888 48.5254759444
C 54.9606306766 49.5115270465 41.3109437213
C 54.9606211248 36.7267836531 44.9275527533
C 65.7731768275 36.7268484113 41.3108641646
C 65.7732248416 49.5117071574 44.9276334759
C 58.5586915837 37.7129430811 49.5115212617
C 62.1753905244 37.7129712397 36.7268247164
C 58.558586966 48.5255515066 36.726944957
C 62.1753703619 48.5255271494 49.5117659686
C 58.5585381861 49.5116780915 37.713066209
C 62.1753561498 36.7268840002 37.7129901535
C 58.5586662985 36.7267534282 48.5254709322
C 62.1753049448 49.5115483405 48.5255345452
C 66.7592900903 37.713004683 41.3108021108
C 53.9745608779 37.7129694528 44.9274822136
C 53.9744505133 48.5254365886 41.3109478194
C 66.7592764371 48.5255096878 44.9276134376
C 54.9606830302 41.310913631 49.5115165116
C 54.9607312755 44.9276801551 36.7266946308
C 65.7732254177 41.3109718868 36.7268791777
C 65.7732186428 44.9276413375 49.5116919725
C 58.6966851363 35.9890083907 44.7895685385
C 62.037258352 50.249251173 44.7895015553
C 62.0373094121 35.9891931411 41.4489832287
C 58.6966491266 50.2494722091 41.4489166733
C 62.0372215247 41.4489679576 35.9891631888
C 62.0371989613 44.7896296506 50.2495689377
C 58.6966665019 44.7895249432 35.9891394525
C 58.6966661363 41.4488976387 50.2493018605
C 53.2368162647 44.7896927461 41.4489949606
C 67.4968604052 44.7894625755 44.7895377169
C 53.2367826351 41.4490278037 44.7895237842
C 67.4972635874 41.4489833771 41.4488696043
C 67.3205896736 44.6130002944 36.1657597122
C 53.4134957979 41.6255701935 36.16569048
C 53.4133599688 44.612927823 50.072726669
C 67.3203292643 41.6255371159 50.0729307852
C 53.4133779754 50.0727483321 44.6129926433
C 53.4134427681 36.1656510517 41.625441843
C 67.3206565463 36.1658497521 44.6128766732
C 67.320498892 50.0727469454 41.6255586376
C 61.860714503 36.1656515277 50.0728314557
C 58.8732471333 36.1657751455 36.165727497
C 61.8606436564 50.0729345176 36.1658922849
C 58.8732936952 50.0727913065 50.0729098016
C 58.2467575671 34.615808667 62.4871318773
C 62.4870990929 51.6224738705 62.4870677986
C 62.487138804 34.6159870669 58.2467837008
C 58.2467289463 51.6226719466 58.2467861397
C 62.48712424 40.9991147122 51.863661147
C 62.4870972405 45.2394828615 68.8704806416
C 58.2468191035 45.2394424536 51.8636345476
C 58.2467800133 40.9990293982 68.8702080244
C 51.8635916595 45.239484024 58.2467494193
C 68.8701004781 45.2393046479 62.4870990204
C 51.8635797862 40.9990418027 62.4870429068
C 68.8704768333 40.9991243157 58.2466795558
C 66.8706890349 43.2397962347 53.8633198705
C 53.8633474358 42.9988051508 53.8632122552
C 53.8632254083 43.2397171747 66.870561909
C 66.8705042051 42.9987333865 66.870687148
C 53.863241121 49.6228365445 60.4874966452
C 53.8632785657 36.6155266605 60.2463633057
C 66.8706932537 36.6156508508 60.4873691122
C 66.8705957628 49.6229013062 60.2464629732
C 60.4875019368 36.6154940658 66.8706221414
C 60.2464814214 36.6156272042 53.8632932366
C 60.4874223421 49.6230196875 53.8634183894
C 60.2464962544 49.6229011199 66.870719177
C 58.1353740834 49.934671166 63.5845446655
C 62.5982832622 36.303638102 63.5844395753
C 62.5982965912 49.9348464096 57.1493710437
C 58.1354053638 36.3038588208 57.1494592933
C 63.5845538792 40.8878696999 67.1825297621
C 63.584541523 45.3507389917 53.5516202295
C 57.1494302481 45.3507369806 67.1824682361
C 57.1494159636 40.887824028 53.5513826493
C 67.1823810179 46.3367819598 58.135388637
C 53.5512881664 46.3366816127 62.598351601
C 67.1824750869 39.9015136308 62.598227421
C 53.551625973 39.9017049665 58.1353555456
C 67.1824321505 40.8875385648 63.5844510657
C 53.5513092224 45.3505171241 63.5844360361
C 67.1824548208 45.3506530153 57.1492663812
C 53.5516546973 40.8879003387 57.1493009939
C 58.1355245351 46.3369068193 67.1825310591
C 62.5984206815 46.336862917 53.5516418857
C 62.5984638042 39.9016893193 67.1825308694
C 58.1355286987 39.9016870047 53.5513874408
C 63.5844873928 49.9348276475 58.135446848
C 63.5844311757 36.3036698516 62.5983333564
C 57.149268413 49.9346922565 62.5983859032
C 57.1492965233 36.3038000303 58.135607224
C 66.7593935834 41.310934311 54.9606792357
C 53.9746447259 44.9276797136 54.9605732935
C 53.9744507065 41.3108520808 65.7731811118
C 66.7592642291 44.9275178888 65.7731759444
C 54.9606306766 49.5115270465 58.5586437213
C 54.9606211248 36.7267836531 62.1752527533
C 65.7731768275 36.7268484113 58.5585641646
C 65.7732248416 49.5117071574 62.1753334759
C 58.5586915837 37.7129430811 66.7592212617
C 62.1753905244 37.7129712397 53.9745247164
C 58.558586966 48.5255515066 53.974644957
C 62.1753703619 48.5255271494 66.7594659686
C 58.5585381861 49.5116780915 54.9607662124
C 62.1753561498 36.7268840002 54.9606901535
C 58.5586662985 36.7267534282 65.7731709288
C 62.1753049448 49.5115483405 65.7732345452
C 66.7592900903 37.713004683 58.5585021108
C 53.9745608779 37.7129694528 62.1751822136
C 53.9744505133 48.5254365886 58.5586478194
C 66.7592764371 48.5255096878 62.1753134341
C 54.9606830302 41.310913631 66.7592165116
C 54.9607312755 44.9276801551 53.9743946308
C 65.7732254177 41.3109718868 53.9745791777
C 65.7732186428 44.9276413375 66.7593919725
C 58.6966851363 35.9890083907 62.037268542
C 62.037258352 50.249251173 62.0372015553
C 62.0373094121 35.9891931411 58.6966832253
C 58.6966491266 50.2494722091 58.6966166733
C 62.0372215247 41.4489679576 53.2368631888
C 62.0371989613 44.7896296506 67.4972689377
C 58.6966665019 44.7895249432 53.2368394525
C 58.6966661363 41.4488976387 67.4970018605
C 53.2368162647 44.7896927461 58.6966949606
C 67.4968604052 44.7894625755 62.0372377169
C 53.2367826351 41.4490278037 62.0372237842
C 67.4972635874 41.4489833771 58.6965696043
C 67.3205896736 44.6130002944 53.4134597088
C 53.4134957979 41.6255701935 53.41339048
C 53.4133599688 44.612927823 67.320426669
C 67.3203292643 41.6255371159 67.3206307886
C 53.4133779754 50.0727483321 61.8606926433
C 53.4134427681 36.1656510517 58.873141843
C 67.3206565463 36.1658497521 61.8605766732
C 67.320498892 50.0727469454 58.8732586376
C 61.860714503 36.1656515277 67.3205314591
C 58.8732471333 36.1657751455 53.4134274935
C 61.8606436564 50.0729345176 53.4135922884
C 58.8732936952 50.0727913065 67.3206098016
C 58.2467575671 51.863508667 45.2394318807
C 62.4870990929 68.8701738705 45.2393677986
C 62.487138804 51.8636870669 40.9990837008
C 58.2467289463 68.8703719466 40.9990861397
C 62.48712424 58.2468147122 34.6159611436
C 62.4870972405 62.4871828615 51.6227806381
C 58.2468191035 62.4871424536 34.6159345476
C 58.2467800133 58.2467293982 51.6225080244
C 51.8635916595 62.487184024 40.9990494193
C 68.8701004781 62.4870046479 45.2393990204
C 51.8635797862 58.2467418027 45.2393429068
C 68.8704768333 58.2468243157 40.9989795592
C 66.8706890349 60.4874962347 36.6156198705
C 53.8633474358 60.2465051508 36.6155122552
C 53.8632254083 60.4874171747 49.622861909
C 66.8705042051 60.24643339 49.622987148
C 53.863241121 66.8705365445 43.2397966452
C 53.8632785657 53.8632266605 42.9986633057
C 66.8706932537 53.8633508508 43.2396691122
C 66.8705957628 66.8706013097 42.9987629732
C 60.4875019368 53.8631940658 49.622922138
C 60.2464814214 53.8633272042 36.6155932332
C 60.4874223421 66.8707196875 36.6157183894
C 60.2464962544 66.8706011199 49.623019177
C 58.1353740834 67.182371166 46.3368446655
C 62.5982832622 53.5513381054 46.3367395787
C 62.5982965912 67.1825464096 39.9016710437
C 58.1354053638 53.5515588243 39.9017592933
C 63.5845538792 58.1355696999 49.9348297621
C 63.584541523 62.5984389917 36.3039202295
C 57.1494302481 62.5984369806 49.9347682361
C 57.1494159636 58.1355240245 36.3036826493
C 67.1823810179 63.5844819598 40.887688637
C 53.5512881664 63.5843816092 45.3506516045
C 67.1824750869 57.1492136308 45.350527421
C 53.551625973 57.1494049665 40.8876555456
C 67.1824321505 58.1352385648 46.3367510691
C 53.5513092224 62.5982171241 46.3367360361
C 67.1824548208 62.5983530153 39.9015663846
C 53.5516546973 58.1356003387 39.9016009973
C 58.1355245351 63.5846068193 49.9348310591
C 62.5984206815 63.584562917 36.3039418857
C 62.5984638042 57.1493893193 49.9348308694
C 58.1355286987 57.1493870047 36.3036874408
C 63.5844873928 67.1825276475 40.887746848
C 63.5844311757 53.5513698516 45.3506333564
C 57.149268413 67.1823922565 45.3506859032
C 57.1492965233 53.5515000303 40.887907224
C 66.7593935834 58.558634311 37.7129792392
C 53.9746447259 62.1753797136 37.7128732935
C 53.9744507065 58.5585520808 48.5254811118
C 66.7592642291 62.1752178888 48.5254759444
C 54.9606306766 66.7592270465 41.3109437213
C 54.9606211248 53.9744836531 44.9275527533
C 65.7731768275 53.9745484113 41.3108641646
C 65.7732248416 66.7594071574 44.9276334759
C 58.5586915837 54.9606430811 49.5115212617
C 62.1753905244 54.9606712397 36.7268247164
C 58.558586966 65.7732515066 36.726944957
C 62.1753703619 65.7732271528 49.5117659686
C 58.5585381861 66.7593780915 37.713066209
C 62.1753561498 53.9745840002 37.7129901535
C 58.5586662985 53.9744534282 48.5254709322
C 62.1753049448 66.7592483371 48.5255345452
C 66.7592900903 54.960704683 41.3108021108
C 53.9745608779 54.9606694528 44.9274822136
C 53.9744505133 65.7731365886 41.3109478194
C 66.7592764371 65.7732096878 44.9276134376
C 54.9606830302 58.558613631 49.5115165116
C 54.9607312755 62.1753801551 36.7266946308
C 65.7732254177 58.5586718868 36.7268791777
C 65.7732186428 62.175341334 49.5116919725
C 58.6966851363 53.2367083907 44.7895685385
C 62.037258352 67.4969511695 44.7895015553
C 62.0373094121 53.2368931411 41.4489832287
C 58.6966491266 67.4971722091 41.4489166733
C 62.0372215247 58.6966679576 35.9891631888
C 62.0371989613 62.0373296506 50.2495689377
C 58.6966665019 62.0372249432 35.9891394525
C 58.6966661363 58.6965976387 50.2493018605
C 53.2368162647 62.0373927461 41.4489949606
C 67.4968604052 62.0371625755 44.7895377169
C 53.2367826351 58.6967278037 44.7895237842
C 67.4972635874 58.6966833771 41.4488696043
C 67.3205896736 61.8607002944 36.1657597122
C 53.4134957979 58.8732701935 36.16569048
C 53.4133599688 61.8606278264 50.072726669
C 67.3203292643 58.8732371159 50.0729307852
C 53.4133779754 67.3204483321 44.6129926433
C 53.4134427681 53.4133510517 41.625441843
C 67.3206565463 53.4135497556 44.6128766732
C 67.320498892 67.3204469454 41.6255586376
C 61.860714503 53.4133515277 50.0728314557
C 58.8732471333 53.4134751455 36.165727497
C 61.8606436564 67.320634521 36.1658922849
C 58.8732936952 67.3204913065 50.0729098016
C 58.2467575671 51.863508667 62.4871318773
C 62.4870990929 68.8701738705 62.4870677986
C 62.487138804 51.8636870669 58.2467837008
C 58.2467289463 68.8703719466 58.2467861397
C 62.48712424 58.2468147122 51.863661147
C 62.4870972405 62.4871828615 68.8704806416
C 58.2468191035 62.4871424536 51.8636345476
C 58.2467800133 58.2467293982 68.8702080244
C 51.8635916595 62.487184024 58.2467494193
C 68.8701004781 62.4870046479 62.4870990204
C 51.8635797862 58.2467418027 62.4870429068
C 68.8704768333 58.2468243157 58.2466795558
C 66.8706890349 60.4874962347 53.8633198705
C 53.8633474358 60.2465051508 53.8632122552
C 53.8632254083 60.4874171747 66.870561909
C 66.8705042051 60.24643339 66.870687148
C 53.863241121 66.8705365445 60.4874966452
C 53.8632785657 53.8632266605 60.2463633057
C 66.8706932537 53.8633508508 60.4873691122
C 66.8705957628 66.8706013097 60.2464629732
C 60.4875019368 53.8631940658 66.8706221414
C 60.2464814214 53.8633272042 53.8632932366
C 60.4874223421 66.8707196875 53.8634183894
C 60.2464962544 66.8706011199 66.870719177
C 58.1353740834 67.182371166 63.5845446655
C 62.5982832622 53.5513381054 63.5844395753
C 62.5982965912 67.1825464096 57.1493710437
C 58.1354053638 53.5515588243 57.1494592933
C 63.5845538792 58.1355696999 67.1825297621
C 63.584541523 62.5984389917 53.5516202295
C 57.1494302481 62.5984369806 67.1824682361
C 57.1494159636 58.1355240245 53.5513826493
C 67.1823810179 63.5844819598 58.135388637
C 53.5512881664 63.5843816092 62.598351601
C 67.1824750869 57.1492136308 62.598227421
C 53.551625973 57.1494049665 58.1353555456
C 67.1824321505 58.1352385648 63.5844510657
C 53.5513092224 62.5982171241 63.5844360361
C 67.1824548208 62.5983530153 57.1492663812
C 53.5516546973 58.1356003387 57.1493009939
C 58.1355245351 63.5846068193 67.1825310591
C 62.5984206815 63.584562917 53.5516418857
C 62.5984638042 57.1493893193 67.1825308694
C 58.1355286987 57.1493870047 53.5513874408
C 63.5844873928 67.1825276475 58.135446848
C 63.5844311757 53.5513698516 62.5983333564
C 57.149268413 67.1823922565 62.5983859032
C 57.1492965233 53.5515000303 58.135607224
C 66.7593935834 58.558634311 54.9606792357
C 53.9746447259 62.1753797136 54.9605732935
C 53.9744507065 58.5585520808 65.7731811118
C 66.7592642291 62.1752178888 65.7731759444
C 54.9606306766 66.7592270465 58.5586437213
C 54.9606211248 53.9744836531 62.1752527533
C 65.7731768275 53.9745484113 58.5585641646
C 65.7732248416 66.7594071574 62.1753334759
C 58.5586915837 54.9606430811 66.7592212617
C 62.1753905244 54.9606712397 53.9745247164
C 58.558586966 65.7732515066 53.974644957
C 62.1753703619 65.7732271528 66.7594659686
C 58.5585381861 66.7593780915 54.9607662124
C 62.1753561498 53.9745840002 54.9606901535
C 58.5586662985 53.9744534282 65.7731709288
C 62.1753049448 66.7592483371 65.7732345452
C 66.7592900903 54.960704683 58.5585021108
C 53.9745608779 54.9606694528 62.1751822136
C 53.9744505133 65.7731365886 58.5586478194
C 66.7592764371 65.7732096878 62.1753134341
C 54.9606830302 58.558613631 66.7592165116
C 54.9607312755 62.1753801551 53.9743946308
C 65.7732254177 58.5586718868 53.9745791777
C 65.7732186428 62.175341334 66.7593919725
C 58.6966851363 53.2367083907 62.037268542
C 62.037258352 67.4969511695 62.0372015553
C 62.0373094121 53.2368931411 58.6966832253
C 58.6966491266 67.4971722091 58.6966166733
C 62.0372215247 58.6966679576 53.2368631888
C 62.0371989613 62.0373296506 67.4972689377
C 58.6966665019 62.0372249432 53.2368394525
C 58.6966661363 58.6965976387 67.4970018605
C 53.2368162647 62.0373927461 58.6966949606
C 67.4968604052 62.0371625755 62.0372377169
C 53.2367826351 58.6967278037 62.0372237842
C 67.4972635874 58.6966833771 58.6965696043
C 67.3205896736 61.8607002944 53.4134597088
C 53.4134957979 58.8732701935 53.41339048
C 53.4133599688 61.8606278264 67.320426669
C 67.3203292643 58.8732371159 67.3206307886
C 53.4133779754 67.3204483321 61.8606926433
C 53.4134427681 53.4133510517 58.873141843
C 67.3206565463 53.4135497556 61.8605766732
C 67.320498892 67.3204469454 58.8732586376
C 61.860714503 53.4133515277 67.3205314591
C 58.8732471333 53.4134751455 53.4134274935
C 61.8606436564 67.320634521 53.4135922884
C 58.8732936952 67.3204913065 67.3206098016
Zn 43.1192463504 34.495240957 47.4311967838
Zn 43.1191767214 34.4955568161 38.80739931
Zn 47.4311525538 43.1193741076 34.4955267396
Zn 38.8073773778 43.1192438564 34.4952982146
Zn 34.4952634531 47.4311270583 43.1192764476
Zn 34.4955125193 38.8073706616 43.1190518308
Zn 34.4952252249 43.1191034739 47.4311706501
Zn 34.4955561683 43.1193182491 38.8073119573
Zn 43.1193027538 47.431260828 34.4955859293
Zn 43.119289956 38.8073035025 34.4953725408
Zn 47.4312452395 34.4954260991 43.1192515661
Zn 38.807281215 34.4953304075 43.1192636981
Zn 43.1192463504 34.495240957 64.6788967838
Zn 43.1191767214 34.4955568161 56.05509931
Zn 47.4311525538 43.1193741076 51.7432267395
Zn 38.8073773778 43.1192438564 51.7429982144
Zn 34.4952634531 47.4311270583 60.3669764442
Zn 34.4955125193 38.8073706616 60.3667518308
Zn 34.4952252249 43.1191034739 64.6788706501
Zn 34.4955561683 43.1193182491 56.0550119573
Zn 43.1193027538 47.431260828 51.7432859302
Zn 43.119289956 38.8073035025 51.7430725417
Zn 47.4312452395 34.4954260991 60.3669515661
Zn 38.807281215 34.4953304075 60.3669636981
Zn 43.1192463504 51.7429409555 47.4311967838
Zn 43.1191767214 51.7432568161 38.80739931
Zn 47.4311525538 60.3670741076 34.4955267396
Zn 38.8073773778 60.3669438564 34.4952982146
Zn 34.4952634531 64.6788270583 43.1192764476
Zn 34.4955125193 56.0550706581 43.1190518308
Zn 34.4952252249 60.3668034739 47.4311706501
Zn 34.4955561683 60.3670182491 38.8073119573
Zn 43.1193027538 64.678960828 34.4955859293
Zn 43.119289956 56.0550035025 34.4953725408
Zn 47.4312452395 51.7431260992 43.1192515661
Zn 38.807281215 51.743030409 43.1192636981
Zn 43.1192463504 51.7429409555 64.6788967838
Zn 43.1191767214 51.7432568161 56.05509931
Zn 47.4311525538 60.3670741076 51.7432267395
Zn 38.8073773778 60.3669438564 51.7429982144
Zn 34.4952634531 64.6788270583 60.3669764442
Zn 34.4955125193 56.0550706581 60.3667518308
Zn 34.4952252249 60.3668034739 64.6788706501
Zn 34.4955561683 60.3670182491 56.0550119573
Zn 43.1193027538 64.678960828 51.7432859302
Zn 43.119289956 56.0550035025 51.7430725417
Zn 47.4312452395 51.7431260992 60.3669515661
Zn 38.807281215 51.743030409 60.3669636981
Zn 60.3669463504 34.495240957 47.4311967838
Zn 60.3668767249 34.4955568161 38.80739931
Zn 64.6788525538 43.1193741076 34.4955267396
Zn 56.0550773744 43.1192438564 34.4952982146
Zn 51.7429634534 47.4311270583 43.1192764476
Zn 51.7432125205 38.8073706616 43.1190518308
Zn 51.7429252256 43.1191034739 47.4311706501
Zn 51.7432561676 43.1193182491 38.8073119573
Zn 60.3670027538 47.431260828 34.4955859293
Zn 60.366989956 38.8073035025 34.4953725408
Zn 64.6789452395 34.4954260991 43.1192515661
Zn 56.054981215 34.4953304075 43.1192636981
Zn 60.3669463504 34.495240957 64.6788967838
Zn 60.3668767249 34.4955568161 56.05509931
Zn 64.6788525538 43.1193741076 51.7432267395
Zn 56.0550773744 43.1192438564 51.7429982144
Zn 51.7429634534 47.4311270583 60.3669764442
Zn 51.7432125205 38.8073706616 60.3667518308
Zn 51.7429252256 43.1191034739 64.6788706501
Zn 51.7432561676 43.1193182491 56.0550119573
Zn 60.3670027538 47.431260828 51.7432859302
Zn 60.366989956 38.8073035025 51.7430725417
Zn 64.6789452395 34.4954260991 60.3669515661
Zn 56.054981215 34.4953304075 60.3669636981
Zn 60.3669463504 51.7429409555 47.4311967838
Zn 60.3668767249 51.7432568161 38.80739931
Zn 64.6788525538 60.3670741076 34.4955267396
Zn 56.0550773744 60.3669438564 34.4952982146
Zn 51.7429634534 64.6788270583 43.1192764476
Zn 51.7432125205 56.0550706581 43.1190518308
Zn 51.7429252256 60.3668034739 47.4311706501
Zn 51.7432561676 60.3670182491 38.8073119573
Zn 60.3670027538 64.678960828 34.4955859293
Zn 60.366989956 56.0550035025 34.4953725408
Zn 64.6789452395 51.7431260992 43.1192515661
Zn 56.054981215 51.743030409 43.1192636981
Zn 60.3669463504 51.7429409555 64.6788967838
Zn 60.3668767249 51.7432568161 56.05509931
Zn 64.6788525538 60.3670741076 51.7432267395
Zn 56.0550773744 60.3669438564 51.7429982144
Zn 51.7429634534 64.6788270583 60.3669764442
Zn 51.7432125205 56.0550706581 60.3667518308
Zn 51.7429252256 60.3668034739 64.6788706501
Zn 51.7432561676 60.3670182491 56.0550119573
Zn 60.3670027538 64.678960828 51.7432859302
Zn 60.366989956 56.0550035025 51.7430725417
Zn 64.6789452395 51.7431260992 60.3669515661
Zn 56.054981215 51.743030409 60.3669636981
N 41.5745951991 51.155320844 46.2645278708
N 44.6637635043 35.0829350804 46.2644218009
N 44.6637595787 51.155526026 39.9740451249
N 41.5745956959 35.0832023852 39.9740359147
N 46.264482599 41.5747518255 51.1554890539
N 46.2644804189 44.6638873876 35.0832432933
N 39.9740764295 44.6638280107 51.1554119463
N 39.9740335655 41.5746580877 35.0829927084
N 51.1553447493 46.2645175774 41.57460423
N 35.0828738373 46.2643990546 44.6638327331
N 51.1554398945 39.9739983354 44.6636439191
N 35.0832339382 39.9740116954 41.5745115236
N 51.1553803761 41.5744804536 46.2644823472
N 35.0829167426 44.6636565478 46.2644161126
N 51.1554632755 44.6638437199 39.9739628603
N 35.083289086 41.5747792252 39.9739705942
N 41.5746945873 46.2645619143 51.155508223
N 44.6638267723 46.2645439491 35.0832774507
N 44.6638745484 39.9740109538 51.1554898335
N 41.574675532 39.9739734642 35.0830013599
N 46.2645291437 51.155491441 41.5746248272
N 46.2644632678 35.0829887483 44.6637887169
N 39.973969511 51.1553553394 44.6638135812
N 39.9739547918 35.0831023727 41.5747197379
N 50.1985962786 42.5315939166 37.6406645866
N 36.0400999691 43.7069833669 37.6406022017
N 36.0398399049 42.5314944457 48.5978666076
N 50.1983597747 43.7068121282 48.5978235125
N 37.6406379044 50.1983923315 42.5316147657
N 37.640585292 36.0398888055 43.7069021336
N 48.5978884018 36.0400122025 42.5315520082
N 48.5978867011 50.1985686582 43.7069626938
N 42.5316555289 37.6406315642 50.1984248675
N 43.7070022876 37.6406461316 36.0399563648
N 42.5315834335 48.5979211138 36.0401135948
N 43.7070217395 48.5979087851 50.1986853492
N 42.5314992785 50.1985953749 37.6407604114
N 43.7069427589 36.0400585195 37.6406885264
N 42.5316114679 36.039837604 48.5978866287
N 43.7069219443 50.1983987097 48.5978577699
N 50.1985325691 37.6407159054 42.5314393048
N 36.0400264456 37.640648598 43.7067863912
N 36.0398828551 48.5977973684 42.5316186912
N 50.1984259852 48.5977987793 43.7069318031
N 37.6406898476 42.5315945617 50.1983678949
N 37.6406788677 43.7069972133 36.0398505984
N 48.5978803574 42.5316485608 36.0400317269
N 48.5978326331 43.7070110736 50.1986263103
N 41.5745951991 51.155320844 63.5122278708
N 44.6637635043 35.0829350804 63.5121217974
N 44.6637595787 51.155526026 57.2217451249
N 41.5745956959 35.0832023852 57.2217359147
N 46.264482599 41.5747518255 68.4031890504
N 46.2644804189 44.6638873876 52.3309432933
N 39.9740764295 44.6638280107 68.4031119463
N 39.9740335655 41.5746580877 52.330692705
N 51.1553447493 46.2645175774 58.82230423
N 35.0828738373 46.2643990546 61.9115327331
N 51.1554398945 39.9739983354 61.9113439191
N 35.0832339382 39.9740116954 58.8222115236
N 51.1553803761 41.5744804536 63.5121823472
N 35.0829167426 44.6636565478 63.5121161126
N 51.1554632755 44.6638437199 57.2216628603
N 35.083289086 41.5747792252 57.2216705942
N 41.5746945873 46.2645619143 68.403208223
N 44.6638267723 46.2645439491 52.3309774507
N 44.6638745484 39.9740109538 68.4031898335
N 41.574675532 39.9739734642 52.3307013599
N 46.2645291437 51.155491441 58.8223248272
N 46.2644632678 35.0829887483 61.9114887204
N 39.973969511 51.1553553394 61.9115135812
N 39.9739547918 35.0831023727 58.8224197379
N 50.1985962786 42.5315939166 54.8883645866
N 36.0400999691 43.7069833669 54.8883022017
N 36.0398399049 42.5314944457 65.8455666076
N 50.1983597747 43.7068121282 65.8455235125
N 37.6406379044 50.1983923315 59.7793147657
N 37.640585292 36.0398888055 60.9546021371
N 48.5978884018 36.0400122025 59.7792520047
N 48.5978867011 50.1985686582 60.9546626903
N 42.5316555289 37.6406315642 67.4461248675
N 43.7070022876 37.6406461316 53.2876563648
N 42.5315834335 48.5979211138 53.2878135914
N 43.7070217395 48.5979087851 67.4463853458
N 42.5314992785 50.1985953749 54.8884604114
N 43.7069427589 36.0400585195 54.8883885264
N 42.5316114679 36.039837604 65.8455866287
N 43.7069219443 50.1983987097 65.8455577699
N 50.1985325691 37.6407159054 59.7791393048
N 36.0400264456 37.640648598 60.9544863878
N 36.0398828551 48.5977973684 59.7793186912
N 50.1984259852 48.5977987793 60.9546318031
N 37.6406898476 42.5315945617 67.4460678915
N 37.6406788677 43.7069972133 53.2875505984
N 48.5978803574 42.5316485608 53.2877317269
N 48.5978326331 43.7070110736 67.4463263103
N 41.5745951991 68.403020844 46.2645278708
N 44.6637635043 52.3306350804 46.2644218009
N 44.6637595787 68.403226026 39.9740451249
N 41.5745956959 52.3309023852 39.9740359147
N 46.264482599 58.8224518255 51.1554890539
N 46.2644804189 61.9115873841 35.0832432933
N 39.9740764295 61.9115280107 51.1554119463
N 39.9740335655 58.8223580843 35.0829927084
N 51.1553447493 63.5122175774 41.57460423
N 35.0828738373 63.5120990546 44.6638327331
N 51.1554398945 57.2216983354 44.6636439191
N 35.0832339382 57.2217116954 41.5745115236
N 51.1553803761 58.8221804536 46.2644823472
N 35.0829167426 61.9113565478 46.2644161126
N 51.1554632755 61.9115437199 39.9739628603
N 35.083289086 58.8224792252 39.9739705942
N 41.5746945873 63.5122619143 51.155508223
N 44.6638267723 63.5122439491 35.0832774507
N 44.6638745484 57.2217109572 51.1554898335
N 41.574675532 57.2216734642 35.0830013599
N 46.2645291437 68.403191441 41.5746248272
N 46.2644632678 52.3306887483 44.6637887169
N 39.973969511 68.4030553394 44.6638135812
N 39.9739547918 52.3308023762 41.5747197379
N 50.1985962786 59.7792939201 37.6406645866
N 36.0400999691 60.9546833634 37.6406022017
N 36.0398399049 59.7791944457 48.5978666076
N 50.1983597747 60.9545121248 48.5978235125
N 37.6406379044 67.4460923315 42.5316147657
N 37.640585292 53.2875888055 43.7069021336
N 48.5978884018 53.2877122059 42.5315520082
N 48.5978867011 67.4462686582 43.7069626938
N 42.5316555289 54.8883315642 50.1984248675
N 43.7070022876 54.8883461316 36.0399563648
N 42.5315834335 65.8456211138 36.0401135948
N 43.7070217395 65.8456087886 50.1986853492
N 42.5314992785 67.4462953749 37.6407604114
N 43.7069427589 53.287758516 37.6406885264
N 42.5316114679 53.287537604 48.5978866287
N 43.7069219443 67.4460987097 48.5978577699
N 50.1985325691 54.8884159054 42.5314393048
N 36.0400264456 54.888348598 43.7067863912
N 36.0398828551 65.8454973684 42.5316186912
N 50.1984259852 65.8454987793 43.7069318031
N 37.6406898476 59.7792945617 50.1983678949
N 37.6406788677 60.9546972133 36.0398505984
N 48.5978803574 59.7793485608 36.0400317269
N 48.5978326331 60.9547110701 50.1986263103
N 41.5745951991 68.403020844 63.5122278708
N 44.6637635043 52.3306350804 63.5121217974
N 44.6637595787 68.403226026 57.2217451249
N 41.5745956959 52.3309023852 57.2217359147
N 46.264482599 58.8224518255 68.4031890504
N 46.2644804189 61.9115873841 52.3309432933
N 39.9740764295 61.9115280107 68.4031119463
N 39.9740335655 58.8223580843 52.330692705
N 51.1553447493 63.5122175774 58.82230423
N 35.0828738373 63.5120990546 61.9115327331
N 51.1554398945 57.2216983354 61.9113439191
N 35.0832339382 57.2217116954 58.8222115236
N 51.1553803761 58.8221804536 63.5121823472
N 35.0829167426 61.9113565478 63.5121161126
N 51.1554632755 61.9115437199 57.2216628603
N 35.083289086 58.8224792252 57.2216705942
N 41.5746945873 63.5122619143 68.403208223
N 44.6638267723 63.5122439491 52.3309774507
N 44.6638745484 57.2217109572 68.4031898335
N 41.574675532 57.2216734642 52.3307013599
N 46.2645291437 68.403191441 58.8223248272
N 46.2644632678 52.3306887483 61.9114887204
N 39.973969511 68.4030553394 61.9115135812
N 39.9739547918 52.3308023762 58.8224197379
N 50.1985962786 59.7792939201 54.8883645866
N 36.0400999691 60.9546833634 54.8883022017
N 36.0398399049 59.7791944457 65.8455666076
N 50.1983597747 60.9545121248 65.8455235125
N 37.6406379044 67.4460923315 59.7793147657
N 37.640585292 53.2875888055 60.9546021371
N 48.5978884018 53.2877122059 59.7792520047
N 48.5978867011 67.4462686582 60.9546626903
N 42.5316555289 54.8883315642 67.4461248675
N 43.7070022876 54.8883461316 53.2876563648
N 42.5315834335 65.8456211138 53.2878135914
N 43.7070217395 65.8456087886 67.4463853458
N 42.5314992785 67.4462953749 54.8884604114
N 43.7069427589 53.287758516 54.8883885264
N 42.5316114679 53.287537604 65.8455866287
N 43.7069219443 67.4460987097 65.8455577699
N 50.1985325691 54.8884159054 59.7791393048
N 36.0400264456 54.888348598 60.9544863878
N 36.0398828551 65.8454973684 59.7793186912
N 50.1984259852 65.8454987793 60.9546318031
N 37.6406898476 59.7792945617 67.4460678915
N 37.6406788677 60.9546972133 53.2875505984
N 48.5978803574 59.7793485608 53.2877317269
N 48.5978326331 60.9547110701 67.4463263103
N 58.8222951991 51.155320844 46.2645278708
N 61.9114635077 35.0829350804 46.2644218009
N 61.9114595787 51.155526026 39.9740451249
N 58.8222956959 35.0832023852 39.9740359147
N 63.512182599 41.5747518255 51.1554890539
N 63.5121804189 44.6638873876 35.0832432933
N 57.2217764295 44.6638280107 51.1554119463
N 57.2217335655 41.5746580877 35.0829927084
N 68.4030447493 46.2645175774 41.57460423
N 52.3305738373 46.2643990546 44.6638327331
N 68.4031398945 39.9739983354 44.6636439191
N 52.3309339382 39.9740116954 41.5745115236
N 68.4030803761 41.5744804536 46.2644823472
N 52.3306167426 44.6636565478 46.2644161126
N 68.403163272 44.6638437199 39.9739628603
N 52.330989086 41.5747792252 39.9739705942
N 58.8223945873 46.2645619143 51.155508223
N 61.9115267723 46.2645439491 35.0832774507
N 61.9115745484 39.9740109538 51.1554898335
N 58.8223755286 39.9739734642 35.0830013599
N 63.5122291437 51.155491441 41.5746248272
N 63.5121632678 35.0829887483 44.6637887169
N 57.221669511 51.1553553394 44.6638135812
N 57.2216547884 35.0831023727 41.5747197379
N 67.4462962786 42.5315939166 37.6406645866
N 53.2877999691 43.7069833669 37.6406022017
N 53.2875399049 42.5314944457 48.5978666076
N 67.4460597747 43.7068121282 48.5978235125
N 54.8883379044 50.1983923315 42.5316147657
N 54.888285292 36.0398888055 43.7069021336
N 65.8455884052 36.0400122025 42.5315520082
N 65.8455867046 50.1985686582 43.7069626938
N 59.7793555289 37.6406315642 50.1984248675
N 60.9547022876 37.6406461316 36.0399563648
N 59.7792834335 48.5979211138 36.0401135948
N 60.9547217395 48.5979087851 50.1986853492
N 59.7791992785 50.1985953749 37.6407604114
N 60.9546427589 36.0400585195 37.6406885264
N 59.7793114645 36.039837604 48.5978866287
N 60.9546219443 50.1983987097 48.5978577699
N 67.4462325691 37.6407159054 42.5314393048
N 53.2877264491 37.640648598 43.7067863912
N 53.2875828551 48.5977973684 42.5316186912
N 67.4461259852 48.5977987793 43.7069318031
N 54.8883898476 42.5315945617 50.1983678949
N 54.8883788712 43.7069972133 36.0398505984
N 65.8455803574 42.5316485608 36.0400317269
N 65.8455326331 43.7070110736 50.1986263103
N 58.8222951991 51.155320844 63.5122278708
N 61.9114635077 35.0829350804 63.5121217974
N 61.9114595787 51.155526026 57.2217451249
N 58.8222956959 35.0832023852 57.2217359147
N 63.512182599 41.5747518255 68.4031890504
N 63.5121804189 44.6638873876 52.3309432933
N 57.2217764295 44.6638280107 68.4031119463
N 57.2217335655 41.5746580877 52.330692705
N 68.4030447493 46.2645175774 58.82230423
N 52.3305738373 46.2643990546 61.9115327331
N 68.4031398945 39.9739983354 61.9113439191
N 52.3309339382 39.9740116954 58.8222115236
N 68.4030803761 41.5744804536 63.5121823472
N 52.3306167426 44.6636565478 63.5121161126
N 68.403163272 44.6638437199 57.2216628603
N 52.330989086 41.5747792252 57.2216705942
N 58.8223945873 46.2645619143 68.403208223
N 61.9115267723 46.2645439491 52.3309774507
N 61.9115745484 39.9740109538 68.4031898335
N 58.8223755286 39.9739734642 52.3307013599
N 63.5122291437 51.155491441 58.8223248272
N 63.5121632678 35.0829887483 61.9114887204
N 57.221669511 51.1553553394 61.9115135812
N 57.2216547884 35.0831023727 58.8224197379
N 67.4462962786 42.5315939166 54.8883645866
N 53.2877999691 43.7069833669 54.8883022017
N 53.2875399049 42.5314944457 65.8455666076
N 67.4460597747 43.7068121282 65.8455235125
N 54.8883379044 50.1983923315 59.7793147657
N 54.888285292 36.0398888055 60.9546021371
N 65.8455884052 36.0400122025 59.7792520047
N 65.8455867046 50.1985686582 60.9546626903
N 59.7793555289 37.6406315642 67.4461248675
N 60.9547022876 37.6406461316 53.2876563648
N 59.7792834335 48.5979211138 53.2878135914
N 60.9547217395 48.5979087851 67.4463853458
N 59.7791992785 50.1985953749 54.8884604114
N 60.9546427589 36.0400585195 54.8883885264
N 59.7793114645 36.039837604 65.8455866287
N 60.9546219443 50.1983987097 65.8455577699
N 67.4462325691 37.6407159054 59.7791393048
N 53.2877264491 37.640648598 60.9544863878
N 53.2875828551 48.5977973684 59.7793186912
N 67.4461259852 48.5977987793 60.9546318031
N 54.8883898476 42.5315945617 67.4460678915
N 54.8883788712 43.7069972133 53.2875505984
N 65.8455803574 42.5316485608 53.2877317269
N 65.8455326331 43.7070110736 67.4463263103
N 58.8222951991 68.403020844 46.2645278708
N 61.9114635077 52.3306350804 46.2644218009
N 61.9114595787 68.403226026 39.9740451249
N 58.8222956959 52.3309023852 39.9740359147
N 63.512182599 58.8224518255 51.1554890539
N 63.5121804189 61.9115873841 35.0832432933
N 57.2217764295 61.9115280107 51.1554119463
N 57.2217335655 58.8223580843 35.0829927084
N 68.4030447493 63.5122175774 41.57460423
N 52.3305738373 63.5120990546 44.6638327331
N 68.4031398945 57.2216983354 44.6636439191
N 52.3309339382 57.2217116954 41.5745115236
N 68.4030803761 58.8221804536 46.2644823472
N 52.3306167426 61.9113565478 46.2644161126
N 68.403163272 61.9115437199 39.9739628603
N 52.330989086 58.8224792252 39.9739705942
N 58.8223945873 63.5122619143 51.155508223
N 61.9115267723 63.5122439491 35.0832774507
N 61.9115745484 57.2217109572 51.1554898335
N 58.8223755286 57.2216734642 35.0830013599
N 63.5122291437 68.403191441 41.5746248272
N 63.5121632678 52.3306887483 44.6637887169
N 57.221669511 68.4030553394 44.6638135812
N 57.2216547884 52.3308023762 41.5747197379
N 67.4462962786 59.7792939201 37.6406645866
N 53.2877999691 60.9546833634 37.6406022017
N 53.2875399049 59.7791944457 48.5978666076
N 67.4460597747 60.9545121248 48.5978235125
N 54.8883379044 67.4460923315 42.5316147657
N 54.888285292 53.2875888055 43.7069021336
N 65.8455884052 53.2877122059 42.5315520082
N 65.8455867046 67.4462686582 43.7069626938
N 59.7793555289 54.8883315642 50.1984248675
N 60.9547022876 54.8883461316 36.0399563648
N 59.7792834335 65.8456211138 36.0401135948
N 60.9547217395 65.8456087886 50.1986853492
N 59.7791992785 67.4462953749 37.6407604114
N 60.9546427589 53.287758516 37.6406885264
N 59.7793114645 53.287537604 48.5978866287
N 60.9546219443 67.4460987097 48.5978577699
N 67.4462325691 54.8884159054 42.5314393048
N 53.2877264491 54.888348598 43.7067863912
N 53.2875828551 65.8454973684 42.5316186912
N 67.4461259852 65.8454987793 43.7069318031
N 54.8883898476 59.7792945617 50.1983678949
N 54.8883788712 60.9546972133 36.0398505984
N 65.8455803574 59.7793485608 36.0400317269
N 65.8455326331 60.9547110701 50.1986263103
N 58.8222951991 68.403020844 63.5122278708
N 61.9114635077 52.3306350804 63.5121217974
N 61.9114595787 68.403226026 57.2217451249
N 58.8222956959 52.3309023852 57.2217359147
N 63.512182599 58.8224518255 68.4031890504
N 63.5121804189 61.9115873841 52.3309432933
N 57.2217764295 61.9115280107 68.4031119463
N 57.2217335655 58.8223580843 52.330692705
N 68.4030447493 63.5122175774 58.82230423
N 52.3305738373 63.5120990546 61.9115327331
N 68.4031398945 57.2216983354 61.9113439191
N 52.3309339382 57.2217116954 58.8222115236
N 68.4030803761 58.8221804536 63.5121823472
N 52.3306167426 61.9113565478 63.5121161126
N 68.403163272 61.9115437199 57.2216628603
N 52.330989086 58.8224792252 57.2216705942
N 58.8223945873 63.5122619143 68.403208223
N 61.9115267723 63.5122439491 52.3309774507
N 61.9115745484 57.2217109572 68.4031898335
N 58.8223755286 57.2216734642 52.3307013599
N 63.5122291437 68.403191441 58.8223248272
N 63.5121632678 52.3306887483 61.9114887204
N 57.221669511 68.4030553394 61.9115135812
N 57.2216547884 52.3308023762 58.8224197379
N 67.4462962786 59.7792939201 54.8883645866
N 53.2877999691 60.9546833634 54.8883022017
N 53.2875399049 59.7791944457 65.8455666076
N 67.4460597747 60.9545121248 65.8455235125
N 54.8883379044 67.4460923315 59.7793147657
N 54.888285292 53.2875888055 60.9546021371
N 65.8455884052 53.2877122059 59.7792520047
N 65.8455867046 67.4462686582 60.9546626903
N 59.7793555289 54.8883315642 67.4461248675
N 60.9547022876 54.8883461316 53.2876563648
N 59.7792834335 65.8456211138 53.2878135914
N 60.9547217395 65.8456087886 67.4463853458
N 59.7791992785 67.4462953749 54.8884604114
N 60.9546427589 53.287758516 54.8883885264
N 59.7793114645 53.287537604 65.8455866287
N 60.9546219443 67.4460987097 65.8455577699
N 67.4462325691 54.8884159054 59.7791393048
N 53.2877264491 54.888348598 60.9544863878
N 53.2875828551 65.8454973684 59.7793186912
N 67.4461259852 65.8454987793 60.9546318031
N 54.8883898476 59.7792945617 67.4460678915
N 54.8883788712 60.9546972133 53.2875505984
N 65.8455803574 59.7793485608 53.2877317269
N 65.8455326331 60.9547110701 67.4463263103
