POSCAR file written by OVITO Basic 3.5.4
1
9.54 0.0 0.0
-4.77 8.26188 0.0
0.0 0.0 30.0
Mo S 
9 18 
Direct
-8.3393525426e-05 5.8756589691e-06 0.6775196105
-1.0688155815e-04 0.3333216236 0.6771079655
-3.6289749821e-05 0.6667564979 0.6777005967
0.3332681119 3.4175225891e-05 0.6774993201
0.3333427123 0.3333647368 0.6771951934
0.333412366 0.66681743 0.6773251663
0.6666386816 -2.8555641369e-05 0.6775396994
0.6666245635 0.3334012518 0.6775219094
0.6666243538 0.6667823137 0.6778770067
0.2219306368 0.1105562406 0.625299363
0.2224604192 0.4448140434 0.6250172911
0.2218027419 0.7779376504 0.6255000732
0.5554783349 0.11099578 0.6255480908
0.5565484617 0.4455414853 0.6255727105
0.5562466531 0.7778213383 0.6255847867
0.8883707895 0.1103705807 0.6252599535
0.8886078461 0.4452479975 0.6254295715
0.8882688213 0.7772189197 0.6259456707
0.2223847031 0.1115932376 0.7294343479
0.2219736315 0.4442391598 0.7291798061
0.2225662148 0.7778266922 0.7295684734
0.5554887565 0.1111525237 0.7295784096
0.5548407946 0.44382018 0.7296034412
0.5550168749 0.7779052623 0.7296760747
0.8891790281 0.11172889 0.7294202199
0.8890250016 0.4439840937 0.7294888883
0.8891941154 0.7781827729 0.7298369742
