POSCAR file written by OVITO Basic 3.5.4
1
9.54 0.0 0.0
-4.77 8.26188 0.0
0.0 0.0 30.0
O Si H 
64 32 16 
Direct
0.3624417294 0.0615284164 0.1004085544
0.4464750478 0.3025051783 0.1608099863
0.1484706239 0.2063926932 0.1392881947
0.0638233908 0.3559755844 0.0769731945
0.8620762598 0.0614409705 0.1004277023
0.946687433 0.3026613689 0.1607792367
0.6487351681 0.2068745782 0.1393195817
0.5637968901 0.3562894078 0.077030503
0.3622117321 0.561361488 0.1004827311
0.4467502856 0.8027018632 0.1607944455
0.1487211754 0.7066193497 0.1393410756
0.0639283458 0.8560787453 0.0770162246
0.8623916336 0.5614529309 0.1004300475
0.9466825888 0.8025601161 0.1608018812
0.648665246 0.7065962199 0.1393453059
0.5637531224 0.8558326776 0.0769767445
0.2100627317 0.1475950879 0.222320593
0.3667109285 0.0655167704 0.2833339138
0.4463691951 0.296681766 0.3459208199
0.1538519091 0.2120923851 0.3228871898
0.0675136077 0.3653019347 0.2627964903
0.3027076122 0.4436723204 0.2006787784
0.7103391482 0.1477578322 0.2223009288
0.8669238093 0.0656500974 0.2833230889
0.9461448962 0.2963464597 0.3459992519
0.6534499667 0.2112845911 0.3228942293
0.5676426148 0.364970653 0.2627453443
0.8032687307 0.4439931386 0.2007677291
0.2105366942 0.647908369 0.2223621566
0.3672318871 0.5652798509 0.2832417319
0.4467011977 0.7959019454 0.3458893914
0.1538613524 0.7115183139 0.3229242933
0.0675783162 0.8647943702 0.2627354068
0.3031363957 0.9439663247 0.2007192413
0.7103955952 0.6477576113 0.2223526777
0.8668805447 0.5654612978 0.2834031999
0.9467358509 0.7968256753 0.3459571926
0.6544863037 0.7120530006 0.3227387859
0.5676140776 0.864979009 0.2626712945
0.8032610582 0.943940676 0.2007262504
0.1969729248 0.1286706392 0.4038996541
0.3305993695 0.0574520258 0.4721591521
0.4223569277 0.320596402 0.5221077297
0.0981326418 0.1676727713 0.5134302881
0.0574158443 0.3375438529 0.4434331204
0.3100331069 0.4360111317 0.3887654915
0.6970777609 0.129305258 0.4041297914
0.8313250624 0.0584659644 0.472406713
0.9233463101 0.32181911 0.5225145938
0.5989509476 0.1680636277 0.5125417797
0.5561474422 0.3372147309 0.4429732382
0.8095438858 0.4361169732 0.3884662019
0.1980448177 0.6297919221 0.4041248285
0.3312709241 0.5581850122 0.4725484032
0.4229756292 0.8221136359 0.5223587845
0.0971656622 0.667492479 0.5133620123
0.0583504785 0.8348996291 0.442391017
0.3117991999 0.9371017402 0.3882365454
0.6971158243 0.6296037901 0.4039620901
0.8305160856 0.5575284246 0.4721929103
0.9237966688 0.8243100061 0.5206596031
0.5985020413 0.6682535112 0.5136278892
0.5575536609 0.8370780493 0.4434348515
0.8100953915 0.9364691727 0.3886195881
0.2355457044 0.0046636885 0.0581411098
0.0050025811 0.2329969225 0.119429921
0.7353003906 0.0046244888 0.0581341444
0.505091812 0.2331663874 0.1194549922
0.2355191918 0.5046585086 0.058166788
0.0051760101 0.7330468934 0.119460412
0.7355096112 0.5047496798 0.0581598503
0.5050971464 0.7329919863 0.119464675
0.2376999898 0.0052735068 0.2422489048
0.0082729593 0.2354914937 0.303587959
0.2761025849 0.2741890882 0.1806740088
0.7378844361 0.0054015711 0.2422334771
0.5082405269 0.235282465 0.3035681996
0.7764229596 0.2744980703 0.1806916208
0.2377973145 0.505305506 0.2422497898
0.0084831515 0.7352948722 0.3036051497
0.2764549617 0.7744522002 0.1807052038
0.7379000896 0.5053681961 0.2423001581
0.5086975775 0.7351493263 0.3034492517
0.7764076643 0.7743647936 0.1807085154
0.2260778936 -0.0091689474 0.4262438879
-0.0139539194 0.2286020479 0.488562474
0.2754886634 0.2677821176 0.3655320905
0.7256223064 -0.0085702825 0.4267173284
0.4855081046 0.2279520027 0.4880675696
0.7751964691 0.2675095907 0.3655242106
0.2258849098 0.4915747573 0.4267816275
-0.0140148367 0.728111932 0.4878076327
0.2761067043 0.7677566095 0.3654491478
0.7249024573 0.4911667712 0.4264505664
0.4860491716 0.7284899393 0.4886305408
0.7758194302 0.7681658055 0.3654697138
0.2082911115 0.1369800946 0.0426374097
0.2963794194 0.9441384175 0.0215798846
0.7078880484 0.1368782903 0.0426659388
0.7963116682 0.944348656 0.0215552534
0.2083005699 0.6370163685 0.0426808211
0.2965147025 0.4442897798 0.0216072313
0.7084474844 0.6371976858 0.0426650097
0.796228923 0.4441290948 0.0215943878
0.4856836823 0.4405081714 0.522144418
0.215915941 0.2373322233 0.5197480347
-0.0143027371 0.4418192449 0.5221216836
0.716313356 0.2384546868 0.5192142533
0.4858833704 0.9420599841 0.5218112346
0.2145987107 0.7376976732 0.519900566
-0.0123251894 0.9443703408 0.5203779003
0.7166467334 0.7387673044 0.5192727732
