POSCAR file written by OVITO Basic 3.5.4
   1.00000000000000     
     9.8399999999999999    0.0000000000000000    0.0000000000000000
    -4.9199999999999999    8.5216899999999995    0.0000000000000000
     0.0000000000000000    0.0000000000000000   30.0000000000000000
   C 
   32
Direct
 -0.0000099898410869  0.0005194120986402  0.6281521080171737
  0.1666713549009436  0.0839047990312334  0.6280565999900406
 -0.0000094400267060  0.2505526276695815  0.6281988196287268
  0.1666397952935814  0.3338447292991810  0.6280974246636759
 -0.0000099906273165  0.5005194104986402  0.6281521080171737
  0.1666713541009436  0.5839047975312354  0.6280565999900406
 -0.0000094408129358  0.7505526260695813  0.6281988196287268
  0.1666397944935813  0.8338447276991802  0.6280974246636759
  0.2500068197124010  0.0005528554914802  0.6279951779879844
  0.4167021883448220  0.0839220442609359  0.6280711328944607
  0.2500259082964826  0.2505548610904729  0.6281753279002323
  0.4166723677603158  0.3338661158587147  0.6282953275207014
  0.2500068189124009  0.5005528538914804  0.6279951779879844
  0.4167021875448220  0.5839220427609375  0.6280711328944607
  0.2500259074964825  0.7505548594904720  0.6281753279002323
  0.4166723669603157  0.8338661142587144  0.6282953275207014
  0.4999900101589127  0.0005194120986402  0.6281521080171737
  0.6666713549009443  0.0839047990312334  0.6280565999900406
  0.4999905599664090  0.2505526276695815  0.6281988196287268
  0.6666397952935809  0.3338447292991810  0.6280974246636759
  0.4999900093589126  0.5005194104986402  0.6281521080171737
  0.6666713541009442  0.5839047975312354  0.6280565999900406
  0.4999905591664089  0.7505526260695813  0.6281988196287268
  0.6666397944935808  0.8338447276991802  0.6280974246636759
  0.7500068197124009  0.0005528554914802  0.6279951779879844
  0.9167021883448219  0.0839220442609359  0.6280711328944607
  0.7500259082964842  0.2505548610904729  0.6281753279002323
  0.9166723677603160  0.3338661158587147  0.6282953275207014
  0.7500068189124008  0.5005528538914804  0.6279951779879844
  0.9167021875448218  0.5839220427609375  0.6280711328944607
  0.7500259074964841  0.7505548594904720  0.6281753279002323
  0.9166723669603160  0.8338661142587144  0.6282953275207014
 