POSCAR file written by OVITO Basic 3.5.4
1
9.54 0.0 0.0
-4.77 8.26188 0.0
0.0 0.0 30.0
O Si H Mo S 
64 32 16 9 18 
Direct
0.3662 0.073 0.09863
0.427 0.2932 0.15869
0.1338 0.2068 0.1416
0.073 0.3662 0.08154
0.8662 0.073 0.09863
0.927 0.2932 0.15869
0.6338 0.2068 0.1416
0.573 0.3662 0.08154
0.3662 0.573 0.09863
0.427 0.7932 0.15869
0.1338 0.7068 0.1416
0.073 0.8662 0.08154
0.8662 0.573 0.09863
0.927 0.7932 0.15869
0.6338 0.7068 0.1416
0.573 0.8662 0.08154
0.2068 0.1338 0.21875
0.3662 0.073 0.27881
0.427 0.2932 0.33886
0.1338 0.2068 0.32177
0.073 0.3662 0.26171
0.2932 0.427 0.20166
0.7068 0.1338 0.21875
0.8662 0.073 0.27881
0.927 0.2932 0.33886
0.6338 0.2068 0.32177
0.573 0.3662 0.26171
0.7932 0.427 0.20166
0.2068 0.6338 0.21875
0.3662 0.573 0.27881
0.427 0.7932 0.33886
0.1338 0.7068 0.32177
0.073 0.8662 0.26171
0.2932 0.927 0.20166
0.7068 0.6338 0.21875
0.8662 0.573 0.27881
0.927 0.7932 0.33886
0.6338 0.7068 0.32177
0.573 0.8662 0.26171
0.7932 0.927 0.20166
0.2068 0.1338 0.39892
0.3662 0.073 0.45898
0.427 0.2932 0.51904
0.1338 0.2068 0.50194
0.073 0.3662 0.44189
0.2932 0.427 0.38183
0.7068 0.1338 0.39892
0.8662 0.073 0.45898
0.927 0.2932 0.51904
0.6338 0.2068 0.50194
0.573 0.3662 0.44189
0.7932 0.427 0.38183
0.2068 0.6338 0.39892
0.3662 0.573 0.45898
0.427 0.7932 0.51904
0.1338 0.7068 0.50194
0.073 0.8662 0.44189
0.2932 0.927 0.38183
0.7068 0.6338 0.39892
0.8662 0.573 0.45898
0.927 0.7932 0.51904
0.6338 0.7068 0.50194
0.573 0.8662 0.44189
0.7932 0.927 0.38183
0.23505 0.0 0.06006
5.5511151231e-17 0.23505 0.12012
0.73505 0.0 0.06006
0.5 0.23505 0.12012
0.23505 0.5 0.06006
1.1102230246e-16 0.73505 0.12012
0.73505 0.5 0.06006
0.5 0.73505 0.12012
0.23505 0.0 0.24023
5.5511151231e-17 0.23505 0.30029
0.26495 0.26495 0.18017
0.73505 0.0 0.24023
0.5 0.23505 0.30029
0.76495 0.26495 0.18017
0.23505 0.5 0.24023
1.1102230246e-16 0.73505 0.30029
0.26495 0.76495 0.18017
0.73505 0.5 0.24023
0.5 0.73505 0.30029
0.76495 0.76495 0.18017
0.23505 0.0 0.4204
5.5511151231e-17 0.23505 0.48046
0.26495 0.26495 0.36035
0.73505 0.0 0.4204
0.5 0.23505 0.48046
0.76495 0.26495 0.36035
0.23505 0.5 0.4204
1.1102230246e-16 0.73505 0.48046
0.26495 0.76495 0.36035
0.73505 0.5 0.4204
0.5 0.73505 0.48046
0.76495 0.76495 0.36035
0.21064 0.13031 0.03985
0.28813 0.92705 0.02336
0.71064 0.13031 0.03985
0.78813 0.92705 0.02336
0.21064 0.63031 0.03985
0.28813 0.42705 0.02336
0.71064 0.63031 0.03985
0.78813 0.42705 0.02336
0.52357 0.39246 0.53747
0.18642 0.28533 0.53116
0.02357 0.39246 0.53747
0.68642 0.28533 0.53116
0.52357 0.89246 0.53747
0.18642 0.78533 0.53116
0.02357 0.89246 0.53747
0.68642 0.78533 0.53116
0.0 0.0 0.6848733334
4.7446756607e-08 0.3333334282 0.6848733334
9.4893513214e-08 0.6666668565 0.6848733334
0.3333333333 0.0 0.6848733334
0.3333333807 0.3333334282 0.6848733334
0.3333334282 0.6666668565 0.6848733334
0.6666666667 0.0 0.6848733334
0.6666667141 0.3333334282 0.6848733334
0.6666667616 0.6666668565 0.6848733334
0.222222238 0.1111111427 0.6317066667
0.2222222855 0.4444445709 0.6317066667
0.2222223329 0.7777779992 0.6317066667
0.5555555714 0.1111111427 0.6317066667
0.5555556189 0.4444445709 0.6317066667
0.5555556663 0.7777779992 0.6317066667
0.8888889047 0.1111111427 0.6317066667
0.8888889522 0.4444445709 0.6317066667
0.8888889996 0.7777779992 0.6317066667
0.222222238 0.1111111427 0.7380400001
0.2222222855 0.4444445709 0.7380400001
0.2222223329 0.7777779992 0.7380400001
0.5555555714 0.1111111427 0.7380400001
0.5555556189 0.4444445709 0.7380400001
0.5555556663 0.7777779992 0.7380400001
0.8888889047 0.1111111427 0.7380400001
0.8888889522 0.4444445709 0.7380400001
0.8888889996 0.7777779992 0.7380400001
