POSCAR file written by OVITO Basic 3.5.4
   1.00000000000000     
     9.5399999999999991    0.0000000000000000    0.0000000000000000
    -4.7699999999999996    8.2618799999999997    0.0000000000000000
     0.0000000000000000    0.0000000000000000   30.0000000000000000
   O    Si   H    Mo   S 
    64    32    16     9    18
Direct
  0.3624417293897461  0.0615284164454946  0.1004085543578067
  0.4464750478084455  0.3025051783387113  0.1608099862801463
  0.1484706238672123  0.2063926931917017  0.1392881946915296
  0.0638233908055160  0.3559755844498370  0.0769731945402994
  0.8620762597515982  0.0614409705079536  0.1004277023002680
  0.9466874329704180  0.3026613689237260  0.1607792366595583
  0.6487351680612508  0.2068745782403395  0.1393195816784209
  0.5637968901311236  0.3562894078192900  0.0770305029623604
  0.3622117321439276  0.5613614880094540  0.1004827311469623
  0.4467502855518029  0.8027018632278432  0.1607944455173532
  0.1487211754338269  0.7066193497277122  0.1393410756370329
  0.0639283458169849  0.8560787452956953  0.0770162245585034
  0.8623916335696336  0.5614529308641160  0.1004300474513276
  0.9466825888293715  0.8025601161198674  0.1608018811970635
  0.6486652459514958  0.7065962199386656  0.1393453059173179
  0.5637531224343761  0.8558326775732524  0.0769767445105246
  0.2100627316535228  0.1475950878725080  0.2223205929800423
  0.3667109285312299  0.0655167704079111  0.2833339138383250
  0.4463691950881020  0.2966817660360659  0.3459208199429875
  0.1538519091066122  0.2120923850786720  0.3228871897791979
  0.0675136076814523  0.3653019346696615  0.2627964903274514
  0.3027076122186522  0.4436723203907520  0.2006787784296905
  0.7103391482247374  0.1477578321776608  0.2223009287655187
  0.8669238092840484  0.0656500973950029  0.2833230889005830
  0.9461448961690978  0.2963464596512421  0.3459992519271671
  0.6534499667484708  0.2112845911328320  0.3228942292674064
  0.5676426148124031  0.3649706530191065  0.2627453443261795
  0.8032687306665182  0.4439931386145402  0.2007677290867143
  0.2105366941800673  0.6479083690254827  0.2223621565522962
  0.3672318870530239  0.5652798508600819  0.2832417319367252
  0.4467011977337239  0.7959019453807642  0.3458893914321308
  0.1538613523704140  0.7115183138668700  0.3229242933081427
  0.0675783162483765  0.8647943702078579  0.2627354068051643
  0.3031363956507935  0.9439663246921143  0.2007192412889360
  0.7103955952194856  0.6477576113288162  0.2223526776662554
  0.8668805447047997  0.5654612977790123  0.2834031998542231
  0.9467358509049322  0.7968256752830383  0.3459571925522091
  0.6544863036635008  0.7120530005854041  0.3227387859465820
  0.5676140775766989  0.8649790090109056  0.2626712945155195
  0.8032610582439416  0.9439406759522744  0.2007262503577463
  0.1969729247602540  0.1286706392416350  0.4038996540998350
  0.3305993694748801  0.0574520258058084  0.4721591520887232
  0.4223569276675730  0.3205964020020187  0.5221077296560890
  0.0981326418439294  0.1676727713489587  0.5134302880752541
  0.0574158442796540  0.3375438529443246  0.4434331203731233
  0.3100331069152422  0.4360111316794375  0.3887654915124410
  0.6970777608931612  0.1293052579933774  0.4041297914224061
  0.8313250624083471  0.0584659644265520  0.4724067129684220
  0.9233463100770727  0.3218191099949115  0.5225145937852583
  0.5989509476402070  0.1680636277312162  0.5125417796775498
  0.5561474421738515  0.3372147308785450  0.4429732382099327
  0.8095438857648052  0.4361169731851262  0.3884662019295821
  0.1980448177045105  0.6297919220764440  0.4041248284673779
  0.3312709241374806  0.5581850121853024  0.4725484032099951
  0.4229756291869977  0.8221136358808836  0.5223587845152747
  0.0971656621853229  0.6674924790118149  0.5133620123337206
  0.0583504785433925  0.8348996290950299  0.4423910170430912
  0.3117991999454279  0.9371017402178538  0.3882365453926506
  0.6971158243479230  0.6296037901090257  0.4039620900701685
  0.8305160855810082  0.5575284246469430  0.4721929102564811
  0.9237966688310537  0.8243100061241611  0.5206596030716699
  0.5985020412950494  0.6682535112126639  0.5136278892016993
  0.5575536608868455  0.8370780493415806  0.4434348514896698
  0.8100953914842525  0.9364691726500921  0.3886195880830343
  0.2355457043539048  0.0046636885278266  0.0581411098342323
  0.0050025811006428  0.2329969225414404  0.1194299209504671
  0.7353003906325333  0.0046244888388826  0.0581341444032979
  0.5050918120454081  0.2331663874031457  0.1194549922051182
  0.2355191918298580  0.5046585086445912  0.0581667880220885
  0.0051760101489642  0.7330468933555512  0.1194604120236459
  0.7355096112008682  0.5047496797973580  0.0581598502769966
  0.5050971463811595  0.7329919863433934  0.1194646749740242
  0.2376999897832435  0.0052735068370350  0.2422489048089119
  0.0082729593227951  0.2354914937204850  0.3035879589612129
  0.2761025849186975  0.2741890882021201  0.1806740087717647
  0.7378844361072532  0.0054015710975420  0.2422334770936336
  0.5082405269045848  0.2352824650253161  0.3035681996486751
  0.7764229595502736  0.2744980702768997  0.1806916207810526
  0.2377973145431076  0.5053055059595424  0.2422497898068532
  0.0084831515182347  0.7352948721585230  0.3036051497294179
  0.2764549616987773  0.7744522002071605  0.1807052038185648
  0.7379000895576654  0.5053681960627922  0.2423001580690064
  0.5086975775170722  0.7351493263194426  0.3034492517106864
  0.7764076642976455  0.7743647936102241  0.1807085153895182
  0.2260778936168428 -0.0091689473555538  0.4262438878702554
 -0.0139539193594865  0.2286020478975243  0.4885624739589740
  0.2754886633962332  0.2677821175816947  0.3655320905078085
  0.7256223063817792 -0.0085702825295439  0.4267173283830358
  0.4855081046182761  0.2279520027000062  0.4880675696469227
  0.7751964691458948  0.2675095907126348  0.3655242106385430
  0.2258849098182416  0.4915747572784619  0.4267816275271096
 -0.0140148367231242  0.7281119319785967  0.4878076327343898
  0.2761067043312591  0.7677566095398873  0.3654491477994413
  0.7249024573464973  0.4911667712265137  0.4264505663708273
  0.4860491715724328  0.7284899392636168  0.4886305407959664
  0.7758194302082493  0.7681658055429884  0.3654697137741415
  0.2082911114524500  0.1369800945510425  0.0426374096982131
  0.2963794193833523  0.9441384174828623  0.0215798845990549
  0.7078880483784148  0.1368782903342930  0.0426659388027964
  0.7963116681757115  0.9443486560422908  0.0215552533841046
  0.2083005698556691  0.6370163685447362  0.0426808211165796
  0.2965147024556409  0.4442897797872878  0.0216072312944015
  0.7084474843802401  0.6371976857924916  0.0426650096533119
  0.7962289229970568  0.4441290948237108  0.0215943877712919
  0.4856836823090944  0.4405081713712675  0.5221444179934304
  0.2159159410301871  0.2373322232634472  0.5197480346921048
 -0.0143027371358068  0.4418192449491753  0.5221216835611914
  0.7163133560463661  0.2384546867784152  0.5192142532760812
  0.4858833703502588  0.9420599840742575  0.5218112345925565
  0.2145987107442509  0.7376976732017552  0.5199005659645254
 -0.0123251893952988  0.9443703408336638  0.5203779002807800
  0.7166467333656047  0.7387673043676838  0.5192727732075767
 -0.0000833935254258  0.0000058756589691  0.6775196105293430
 -0.0001068815581468  0.3333216235583401  0.6771079655176023
 -0.0000362897498211  0.6667564979048950  0.6777005967407090
  0.3332681119326134  0.0000341752258911  0.6774993201035531
  0.3333427122964386  0.3333647368455521  0.6771951934052116
  0.3334123660002911  0.6668174299905441  0.6773251663183120
  0.6666386816390815 -0.0000285556413686  0.6775396993731642
  0.6666245635187427  0.3334012518466687  0.6775219094173387
  0.6666243538122486  0.6667823137070524  0.6778770066860278
  0.2219306368228386  0.1105562405751524  0.6252993630368147
  0.2224604192331935  0.4448140434279758  0.6250172911202264
  0.2218027418723220  0.7779376503764435  0.6255000732307501
  0.5554783348750474  0.1109957800283480  0.6255480907876297
  0.5565484616794092  0.4455414853489795  0.6255727105331663
  0.5562466530746678  0.7778213382874427  0.6255847866740067
  0.8883707894649601  0.1103705806674905  0.6252599534913864
  0.8886078461498033  0.4452479975180154  0.6254295714760627
  0.8882688213100129  0.7772189196540745  0.6259456707358756
  0.2223847031295250  0.1115932376016909  0.7294343478896872
  0.2219736315314422  0.4442391597544399  0.7291798060659814
  0.2225662148129758  0.7778266921829773  0.7295684733968651
  0.5554887564663725  0.1111525236866290  0.7295784096338539
  0.5548407946252778  0.4438201799774747  0.7296034412368358
  0.5550168749361759  0.7779052622643228  0.7296760747237254
  0.8891790281466980  0.1117288900342870  0.7294202198632750
  0.8890250016120702  0.4439840937141802  0.7294888883311829
  0.8891941153929124  0.7781827728631326  0.7298369741795354
 
  0.00000000E+00  0.00000000E+00  0.00000000E+00
  0.00000000E+00  0.00000000E+00  0.00000000E+00
  0.00000000E+00  0.00000000E+00  0.00000000E+00
  0.00000000E+00  0.00000000E+00  0.00000000E+00
  0.00000000E+00  0.00000000E+00  0.00000000E+00
  0.00000000E+00  0.00000000E+00  0.00000000E+00
  0.00000000E+00  0.00000000E+00  0.00000000E+00
  0.00000000E+00  0.00000000E+00  0.00000000E+00
  0.00000000E+00  0.00000000E+00  0.00000000E+00
  0.00000000E+00  0.00000000E+00  0.00000000E+00
  0.00000000E+00  0.00000000E+00  0.00000000E+00
  0.00000000E+00  0.00000000E+00  0.00000000E+00
  0.00000000E+00  0.00000000E+00  0.00000000E+00
  0.00000000E+00  0.00000000E+00  0.00000000E+00
  0.00000000E+00  0.00000000E+00  0.00000000E+00
  0.00000000E+00  0.00000000E+00  0.00000000E+00
  0.00000000E+00  0.00000000E+00  0.00000000E+00
  0.00000000E+00  0.00000000E+00  0.00000000E+00
  0.00000000E+00  0.00000000E+00  0.00000000E+00
  0.00000000E+00  0.00000000E+00  0.00000000E+00
  0.00000000E+00  0.00000000E+00  0.00000000E+00
  0.00000000E+00  0.00000000E+00  0.00000000E+00
  0.00000000E+00  0.00000000E+00  0.00000000E+00
  0.00000000E+00  0.00000000E+00  0.00000000E+00
  0.00000000E+00  0.00000000E+00  0.00000000E+00
  0.00000000E+00  0.00000000E+00  0.00000000E+00
  0.00000000E+00  0.00000000E+00  0.00000000E+00
  0.00000000E+00  0.00000000E+00  0.00000000E+00
  0.00000000E+00  0.00000000E+00  0.00000000E+00
  0.00000000E+00  0.00000000E+00  0.00000000E+00
  0.00000000E+00  0.00000000E+00  0.00000000E+00
  0.00000000E+00  0.00000000E+00  0.00000000E+00
  0.00000000E+00  0.00000000E+00  0.00000000E+00
  0.00000000E+00  0.00000000E+00  0.00000000E+00
  0.00000000E+00  0.00000000E+00  0.00000000E+00
  0.00000000E+00  0.00000000E+00  0.00000000E+00
  0.00000000E+00  0.00000000E+00  0.00000000E+00
  0.00000000E+00  0.00000000E+00  0.00000000E+00
  0.00000000E+00  0.00000000E+00  0.00000000E+00
  0.00000000E+00  0.00000000E+00  0.00000000E+00
  0.00000000E+00  0.00000000E+00  0.00000000E+00
  0.00000000E+00  0.00000000E+00  0.00000000E+00
  0.00000000E+00  0.00000000E+00  0.00000000E+00
  0.00000000E+00  0.00000000E+00  0.00000000E+00
  0.00000000E+00  0.00000000E+00  0.00000000E+00
  0.00000000E+00  0.00000000E+00  0.00000000E+00
  0.00000000E+00  0.00000000E+00  0.00000000E+00
  0.00000000E+00  0.00000000E+00  0.00000000E+00
  0.00000000E+00  0.00000000E+00  0.00000000E+00
  0.00000000E+00  0.00000000E+00  0.00000000E+00
  0.00000000E+00  0.00000000E+00  0.00000000E+00
  0.00000000E+00  0.00000000E+00  0.00000000E+00
  0.00000000E+00  0.00000000E+00  0.00000000E+00
  0.00000000E+00  0.00000000E+00  0.00000000E+00
  0.00000000E+00  0.00000000E+00  0.00000000E+00
  0.00000000E+00  0.00000000E+00  0.00000000E+00
  0.00000000E+00  0.00000000E+00  0.00000000E+00
  0.00000000E+00  0.00000000E+00  0.00000000E+00
  0.00000000E+00  0.00000000E+00  0.00000000E+00
  0.00000000E+00  0.00000000E+00  0.00000000E+00
  0.00000000E+00  0.00000000E+00  0.00000000E+00
  0.00000000E+00  0.00000000E+00  0.00000000E+00
  0.00000000E+00  0.00000000E+00  0.00000000E+00
  0.00000000E+00  0.00000000E+00  0.00000000E+00
  0.00000000E+00  0.00000000E+00  0.00000000E+00
  0.00000000E+00  0.00000000E+00  0.00000000E+00
  0.00000000E+00  0.00000000E+00  0.00000000E+00
  0.00000000E+00  0.00000000E+00  0.00000000E+00
  0.00000000E+00  0.00000000E+00  0.00000000E+00
  0.00000000E+00  0.00000000E+00  0.00000000E+00
  0.00000000E+00  0.00000000E+00  0.00000000E+00
  0.00000000E+00  0.00000000E+00  0.00000000E+00
  0.00000000E+00  0.00000000E+00  0.00000000E+00
  0.00000000E+00  0.00000000E+00  0.00000000E+00
  0.00000000E+00  0.00000000E+00  0.00000000E+00
  0.00000000E+00  0.00000000E+00  0.00000000E+00
  0.00000000E+00  0.00000000E+00  0.00000000E+00
  0.00000000E+00  0.00000000E+00  0.00000000E+00
  0.00000000E+00  0.00000000E+00  0.00000000E+00
  0.00000000E+00  0.00000000E+00  0.00000000E+00
  0.00000000E+00  0.00000000E+00  0.00000000E+00
  0.00000000E+00  0.00000000E+00  0.00000000E+00
  0.00000000E+00  0.00000000E+00  0.00000000E+00
  0.00000000E+00  0.00000000E+00  0.00000000E+00
  0.00000000E+00  0.00000000E+00  0.00000000E+00
  0.00000000E+00  0.00000000E+00  0.00000000E+00
  0.00000000E+00  0.00000000E+00  0.00000000E+00
  0.00000000E+00  0.00000000E+00  0.00000000E+00
  0.00000000E+00  0.00000000E+00  0.00000000E+00
  0.00000000E+00  0.00000000E+00  0.00000000E+00
  0.00000000E+00  0.00000000E+00  0.00000000E+00
  0.00000000E+00  0.00000000E+00  0.00000000E+00
  0.00000000E+00  0.00000000E+00  0.00000000E+00
  0.00000000E+00  0.00000000E+00  0.00000000E+00
  0.00000000E+00  0.00000000E+00  0.00000000E+00
  0.00000000E+00  0.00000000E+00  0.00000000E+00
  0.00000000E+00  0.00000000E+00  0.00000000E+00
  0.00000000E+00  0.00000000E+00  0.00000000E+00
  0.00000000E+00  0.00000000E+00  0.00000000E+00
  0.00000000E+00  0.00000000E+00  0.00000000E+00
  0.00000000E+00  0.00000000E+00  0.00000000E+00
  0.00000000E+00  0.00000000E+00  0.00000000E+00
  0.00000000E+00  0.00000000E+00  0.00000000E+00
  0.00000000E+00  0.00000000E+00  0.00000000E+00
  0.00000000E+00  0.00000000E+00  0.00000000E+00
  0.00000000E+00  0.00000000E+00  0.00000000E+00
  0.00000000E+00  0.00000000E+00  0.00000000E+00
  0.00000000E+00  0.00000000E+00  0.00000000E+00
  0.00000000E+00  0.00000000E+00  0.00000000E+00
  0.00000000E+00  0.00000000E+00  0.00000000E+00
  0.00000000E+00  0.00000000E+00  0.00000000E+00
  0.00000000E+00  0.00000000E+00  0.00000000E+00
  0.00000000E+00  0.00000000E+00  0.00000000E+00
  0.00000000E+00  0.00000000E+00  0.00000000E+00
  0.00000000E+00  0.00000000E+00  0.00000000E+00
  0.00000000E+00  0.00000000E+00  0.00000000E+00
  0.00000000E+00  0.00000000E+00  0.00000000E+00
  0.00000000E+00  0.00000000E+00  0.00000000E+00
  0.00000000E+00  0.00000000E+00  0.00000000E+00
  0.00000000E+00  0.00000000E+00  0.00000000E+00
  0.00000000E+00  0.00000000E+00  0.00000000E+00
  0.00000000E+00  0.00000000E+00  0.00000000E+00
  0.00000000E+00  0.00000000E+00  0.00000000E+00
  0.00000000E+00  0.00000000E+00  0.00000000E+00
  0.00000000E+00  0.00000000E+00  0.00000000E+00
  0.00000000E+00  0.00000000E+00  0.00000000E+00
  0.00000000E+00  0.00000000E+00  0.00000000E+00
  0.00000000E+00  0.00000000E+00  0.00000000E+00
  0.00000000E+00  0.00000000E+00  0.00000000E+00
  0.00000000E+00  0.00000000E+00  0.00000000E+00
  0.00000000E+00  0.00000000E+00  0.00000000E+00
  0.00000000E+00  0.00000000E+00  0.00000000E+00
  0.00000000E+00  0.00000000E+00  0.00000000E+00
  0.00000000E+00  0.00000000E+00  0.00000000E+00
  0.00000000E+00  0.00000000E+00  0.00000000E+00
  0.00000000E+00  0.00000000E+00  0.00000000E+00
  0.00000000E+00  0.00000000E+00  0.00000000E+00
  0.00000000E+00  0.00000000E+00  0.00000000E+00
  0.00000000E+00  0.00000000E+00  0.00000000E+00
