POSCAR file written by OVITO Basic 3.5.4
   1.00000000000000     
     9.8399999999999999    0.0000000000000000    0.0000000000000000
    -4.9199999999999999    8.5216899999999995    0.0000000000000000
     0.0000000000000000    0.0000000000000000   30.0000000000000000
   O    Si   H    C 
    64    32    16    32
Direct
  0.3717444026230555  0.0732585518238869  0.1035742253100644
  0.4389114760255010  0.2995648303985632  0.1642611086251502
  0.1442990241582578  0.2102646678119807  0.1452784926465783
  0.0753158646329272  0.3659674809663501  0.0841255195308747
  0.8717444026230551  0.0732585518238869  0.1035742253100644
  0.9389114760255006  0.2995648303985632  0.1642611086251502
  0.6442990241582572  0.2102646678119807  0.1452784926465783
  0.5753158646329269  0.3659674809663501  0.0841255195308747
  0.3717444026230555  0.5732585518238869  0.1035742253100644
  0.4389114760255010  0.7995648303985631  0.1642611086251502
  0.1442990241582578  0.7102646678119809  0.1452784926465783
  0.0753158646329272  0.8659674809663505  0.0841255195308747
  0.8717444026230551  0.5732585518238869  0.1035742253100644
  0.9389114760255006  0.7995648303985631  0.1642611086251502
  0.6442990241582572  0.7102646678119811  0.1452784926465783
  0.5753158646329269  0.8659674809663506  0.0841255195308747
  0.2137986161880862  0.1411120652183265  0.2249174480534381
  0.3746659610469247  0.0748820988445894  0.2851822214314750
  0.4382613702066196  0.2931073297274319  0.3474552825849582
  0.1485502144236636  0.2141618876172732  0.3271168271117662
  0.0778770589568518  0.3716206335849705  0.2677516219900432
  0.3010934491657834  0.4345667510135374  0.2062396971312413
  0.7137986161880866  0.1411120652183265  0.2249174480534381
  0.8746659610469246  0.0748820988445894  0.2851822214314750
  0.9382613702066197  0.2931073297274319  0.3474552825849582
  0.6485502144236630  0.2141618876172732  0.3271168271117662
  0.5778770589568522  0.3716206335849705  0.2677516219900432
  0.8010934491657832  0.4345667510135374  0.2062396971312413
  0.2137986161880862  0.6411120652183271  0.2249174480534381
  0.3746659610469247  0.5748820988445894  0.2851822214314750
  0.4382613702066196  0.7931073297274314  0.3474552825849582
  0.1485502144236636  0.7141618876172722  0.3271168271117662
  0.0778770589568518  0.8716206335849701  0.2677516219900432
  0.3010934491657833  0.9345667510135363  0.2062396971312413
  0.7137986161880866  0.6411120652183271  0.2249174480534381
  0.8746659610469246  0.5748820988445894  0.2851822214314750
  0.9382613702066197  0.7931073297274314  0.3474552825849582
  0.6485502144236630  0.7141618876172722  0.3271168271117662
  0.5778770589568522  0.8716206335849701  0.2677516219900432
  0.8010934491657832  0.9345667510135363  0.2062396971312413
  0.2005334794812471  0.1203044751520974  0.4042943131417047
  0.3367739369643198  0.0641533406198799  0.4726580711463081
  0.4134459812310902  0.3160345764411400  0.5216366393833066
  0.0919284924318792  0.1722501748194686  0.5161354802461990
  0.0649466933982581  0.3417807603867162  0.4462554597325733
  0.3071378263653460  0.4244618161942669  0.3925703616703554
  0.7005334794812474  0.1203044751520974  0.4042943131417047
  0.8367739369643203  0.0641533406198799  0.4726580711463081
  0.9134459812310909  0.3160345764411400  0.5216366393833066
  0.5919284924318801  0.1722501748194686  0.5161354802461990
  0.5649466933982584  0.3417807603867162  0.4462554597325732
  0.8071378263653465  0.4244618161942669  0.3925703616703554
  0.2005334794812471  0.6203044751520965  0.4042943131417047
  0.3367739369643198  0.5641533406198793  0.4726580711463081
  0.4134459812310902  0.8160345764411406  0.5216366393833066
  0.0919284924318791  0.6722501748194688  0.5161354802461990
  0.0649466933982581  0.8417807603867159  0.4462554597325732
  0.3071378263653460  0.9244618161942669  0.3925703616703554
  0.7005334794812474  0.6203044751520965  0.4042943131417047
  0.8367739369643202  0.5641533406198793  0.4726580711463081
  0.9134459812310909  0.8160345764411406  0.5216366393833066
  0.5919284924318801  0.6722501748194688  0.5161354802461990
  0.5649466933982584  0.8417807603867159  0.4462554597325732
  0.8071378263653465  0.9244618161942669  0.3925703616703554
  0.2397114853630380  0.0077955230779656  0.0635747233986259
  0.0074858350977772  0.2380721872097804  0.1244037604063716
  0.7397114853630382  0.0077955230779656  0.0635747233986259
  0.5074858350977767  0.2380721872097804  0.1244037604063716
  0.2397114853630380  0.5077955230779665  0.0635747233986259
  0.0074858350977772  0.7380721872097804  0.1244037604063716
  0.7397114853630382  0.5077955230779665  0.0635747233986259
  0.5074858350977767  0.7380721872097804  0.1244037604063716
  0.2421514594956772  0.0053262324805947  0.2460233448504809
  0.0095570516625486  0.2385976287844154  0.3067130834957227
  0.2742689872462431  0.2710385414300036  0.1851117252607688
  0.7421514594956766  0.0053262324805947  0.2460233448504809
  0.5095570516625494  0.2385976287844154  0.3067130834957227
  0.7742689872462437  0.2710385414300036  0.1851117252607688
  0.2421514594956772  0.5053262324805949  0.2460233448504809
  0.0095570516625486  0.7385976287844159  0.3067130834957227
  0.2742689872462431  0.7710385414300035  0.1851117252607688
  0.7421514594956766  0.5053262324805949  0.2460233448504809
  0.5095570516625494  0.7385976287844159  0.3067130834957227
  0.7742689872462437  0.7710385414300035  0.1851117252607688
  0.2283628665383277 -0.0112412225667312  0.4284988797635502
 -0.0154816699842960  0.2294799631967165  0.4896496543610726
  0.2727815481643791  0.2627056013451757  0.3680551818943657
  0.7283628665383277 -0.0112412225667312  0.4284988797635502
  0.4845183300157039  0.2294799631967165  0.4896496543610726
  0.7727815481643787  0.2627056013451757  0.3680551818943657
  0.2283628665383276  0.4887587774332686  0.4284988797635502
 -0.0154816699842960  0.7294799631967168  0.4896496543610726
  0.2727815481643791  0.7627056013451758  0.3680551818943657
  0.7283628665383277  0.4887587774332686  0.4284988797635502
  0.4845183300157039  0.7294799631967168  0.4896496543610726
  0.7727815481643787  0.7627056013451758  0.3680551818943657
  0.2104038255024911  0.1334886334989318  0.0472633194186398
  0.2941020184095534  0.9438394483376907  0.0272111502443020
  0.7104038255024906  0.1334886334989318  0.0472633194186398
  0.7941020184095535  0.9438394483376907  0.0272111502443020
  0.2104038255024911  0.6334886334989319  0.0472633194186398
  0.2941020184095534  0.4438394483376905  0.0272111502443020
  0.7104038255024906  0.6334886334989319  0.0472633194186398
  0.7941020184095535  0.4438394483376905  0.0272111502443020
  0.4739639428435455  0.4315931373764001  0.5227385366939533
  0.2071864627270383  0.2368287694083424  0.5204019518730630
 -0.0260360571564543  0.4315931373764001  0.5227385366939533
  0.7071864627270380  0.2368287694083424  0.5204019518730630
  0.4739639428435455  0.9315931373763997  0.5227385366939533
  0.2071864627270383  0.7368287694083426  0.5204019518730630
 -0.0260360571564544  0.9315931373763997  0.5227385366939533
  0.7071864627270380  0.7368287694083426  0.5204019518730630
 -0.0000099898410869  0.0005194120986402  0.6281521080171737
  0.1666713549009436  0.0839047990312334  0.6280565999900406
 -0.0000094400267060  0.2505526276695815  0.6281988196287268
  0.1666397952935814  0.3338447292991810  0.6280974246636759
 -0.0000099906273165  0.5005194104986402  0.6281521080171737
  0.1666713541009436  0.5839047975312354  0.6280565999900406
 -0.0000094408129358  0.7505526260695813  0.6281988196287268
  0.1666397944935813  0.8338447276991802  0.6280974246636759
  0.2500068197124010  0.0005528554914802  0.6279951779879844
  0.4167021883448220  0.0839220442609359  0.6280711328944607
  0.2500259082964826  0.2505548610904729  0.6281753279002323
  0.4166723677603158  0.3338661158587147  0.6282953275207014
  0.2500068189124009  0.5005528538914804  0.6279951779879844
  0.4167021875448220  0.5839220427609375  0.6280711328944607
  0.2500259074964825  0.7505548594904720  0.6281753279002323
  0.4166723669603157  0.8338661142587144  0.6282953275207014
  0.4999900101589127  0.0005194120986402  0.6281521080171737
  0.6666713549009443  0.0839047990312334  0.6280565999900406
  0.4999905599664090  0.2505526276695815  0.6281988196287268
  0.6666397952935809  0.3338447292991810  0.6280974246636759
  0.4999900093589126  0.5005194104986402  0.6281521080171737
  0.6666713541009442  0.5839047975312354  0.6280565999900406
  0.4999905591664089  0.7505526260695813  0.6281988196287268
  0.6666397944935808  0.8338447276991802  0.6280974246636759
  0.7500068197124009  0.0005528554914802  0.6279951779879844
  0.9167021883448219  0.0839220442609359  0.6280711328944607
  0.7500259082964842  0.2505548610904729  0.6281753279002323
  0.9166723677603160  0.3338661158587147  0.6282953275207014
  0.7500068189124008  0.5005528538914804  0.6279951779879844
  0.9167021875448218  0.5839220427609375  0.6280711328944607
  0.7500259074964841  0.7505548594904720  0.6281753279002323
  0.9166723669603160  0.8338661142587144  0.6282953275207014
 
  0.00000000E+00  0.00000000E+00  0.00000000E+00
  0.00000000E+00  0.00000000E+00  0.00000000E+00
  0.00000000E+00  0.00000000E+00  0.00000000E+00
  0.00000000E+00  0.00000000E+00  0.00000000E+00
  0.00000000E+00  0.00000000E+00  0.00000000E+00
  0.00000000E+00  0.00000000E+00  0.00000000E+00
  0.00000000E+00  0.00000000E+00  0.00000000E+00
  0.00000000E+00  0.00000000E+00  0.00000000E+00
  0.00000000E+00  0.00000000E+00  0.00000000E+00
  0.00000000E+00  0.00000000E+00  0.00000000E+00
  0.00000000E+00  0.00000000E+00  0.00000000E+00
  0.00000000E+00  0.00000000E+00  0.00000000E+00
  0.00000000E+00  0.00000000E+00  0.00000000E+00
  0.00000000E+00  0.00000000E+00  0.00000000E+00
  0.00000000E+00  0.00000000E+00  0.00000000E+00
  0.00000000E+00  0.00000000E+00  0.00000000E+00
  0.00000000E+00  0.00000000E+00  0.00000000E+00
  0.00000000E+00  0.00000000E+00  0.00000000E+00
  0.00000000E+00  0.00000000E+00  0.00000000E+00
  0.00000000E+00  0.00000000E+00  0.00000000E+00
  0.00000000E+00  0.00000000E+00  0.00000000E+00
  0.00000000E+00  0.00000000E+00  0.00000000E+00
  0.00000000E+00  0.00000000E+00  0.00000000E+00
  0.00000000E+00  0.00000000E+00  0.00000000E+00
  0.00000000E+00  0.00000000E+00  0.00000000E+00
  0.00000000E+00  0.00000000E+00  0.00000000E+00
  0.00000000E+00  0.00000000E+00  0.00000000E+00
  0.00000000E+00  0.00000000E+00  0.00000000E+00
  0.00000000E+00  0.00000000E+00  0.00000000E+00
  0.00000000E+00  0.00000000E+00  0.00000000E+00
  0.00000000E+00  0.00000000E+00  0.00000000E+00
  0.00000000E+00  0.00000000E+00  0.00000000E+00
  0.00000000E+00  0.00000000E+00  0.00000000E+00
  0.00000000E+00  0.00000000E+00  0.00000000E+00
  0.00000000E+00  0.00000000E+00  0.00000000E+00
  0.00000000E+00  0.00000000E+00  0.00000000E+00
  0.00000000E+00  0.00000000E+00  0.00000000E+00
  0.00000000E+00  0.00000000E+00  0.00000000E+00
  0.00000000E+00  0.00000000E+00  0.00000000E+00
  0.00000000E+00  0.00000000E+00  0.00000000E+00
  0.00000000E+00  0.00000000E+00  0.00000000E+00
  0.00000000E+00  0.00000000E+00  0.00000000E+00
  0.00000000E+00  0.00000000E+00  0.00000000E+00
  0.00000000E+00  0.00000000E+00  0.00000000E+00
  0.00000000E+00  0.00000000E+00  0.00000000E+00
  0.00000000E+00  0.00000000E+00  0.00000000E+00
  0.00000000E+00  0.00000000E+00  0.00000000E+00
  0.00000000E+00  0.00000000E+00  0.00000000E+00
  0.00000000E+00  0.00000000E+00  0.00000000E+00
  0.00000000E+00  0.00000000E+00  0.00000000E+00
  0.00000000E+00  0.00000000E+00  0.00000000E+00
  0.00000000E+00  0.00000000E+00  0.00000000E+00
  0.00000000E+00  0.00000000E+00  0.00000000E+00
  0.00000000E+00  0.00000000E+00  0.00000000E+00
  0.00000000E+00  0.00000000E+00  0.00000000E+00
  0.00000000E+00  0.00000000E+00  0.00000000E+00
  0.00000000E+00  0.00000000E+00  0.00000000E+00
  0.00000000E+00  0.00000000E+00  0.00000000E+00
  0.00000000E+00  0.00000000E+00  0.00000000E+00
  0.00000000E+00  0.00000000E+00  0.00000000E+00
  0.00000000E+00  0.00000000E+00  0.00000000E+00
  0.00000000E+00  0.00000000E+00  0.00000000E+00
  0.00000000E+00  0.00000000E+00  0.00000000E+00
  0.00000000E+00  0.00000000E+00  0.00000000E+00
  0.00000000E+00  0.00000000E+00  0.00000000E+00
  0.00000000E+00  0.00000000E+00  0.00000000E+00
  0.00000000E+00  0.00000000E+00  0.00000000E+00
  0.00000000E+00  0.00000000E+00  0.00000000E+00
  0.00000000E+00  0.00000000E+00  0.00000000E+00
  0.00000000E+00  0.00000000E+00  0.00000000E+00
  0.00000000E+00  0.00000000E+00  0.00000000E+00
  0.00000000E+00  0.00000000E+00  0.00000000E+00
  0.00000000E+00  0.00000000E+00  0.00000000E+00
  0.00000000E+00  0.00000000E+00  0.00000000E+00
  0.00000000E+00  0.00000000E+00  0.00000000E+00
  0.00000000E+00  0.00000000E+00  0.00000000E+00
  0.00000000E+00  0.00000000E+00  0.00000000E+00
  0.00000000E+00  0.00000000E+00  0.00000000E+00
  0.00000000E+00  0.00000000E+00  0.00000000E+00
  0.00000000E+00  0.00000000E+00  0.00000000E+00
  0.00000000E+00  0.00000000E+00  0.00000000E+00
  0.00000000E+00  0.00000000E+00  0.00000000E+00
  0.00000000E+00  0.00000000E+00  0.00000000E+00
  0.00000000E+00  0.00000000E+00  0.00000000E+00
  0.00000000E+00  0.00000000E+00  0.00000000E+00
  0.00000000E+00  0.00000000E+00  0.00000000E+00
  0.00000000E+00  0.00000000E+00  0.00000000E+00
  0.00000000E+00  0.00000000E+00  0.00000000E+00
  0.00000000E+00  0.00000000E+00  0.00000000E+00
  0.00000000E+00  0.00000000E+00  0.00000000E+00
  0.00000000E+00  0.00000000E+00  0.00000000E+00
  0.00000000E+00  0.00000000E+00  0.00000000E+00
  0.00000000E+00  0.00000000E+00  0.00000000E+00
  0.00000000E+00  0.00000000E+00  0.00000000E+00
  0.00000000E+00  0.00000000E+00  0.00000000E+00
  0.00000000E+00  0.00000000E+00  0.00000000E+00
  0.00000000E+00  0.00000000E+00  0.00000000E+00
  0.00000000E+00  0.00000000E+00  0.00000000E+00
  0.00000000E+00  0.00000000E+00  0.00000000E+00
  0.00000000E+00  0.00000000E+00  0.00000000E+00
  0.00000000E+00  0.00000000E+00  0.00000000E+00
  0.00000000E+00  0.00000000E+00  0.00000000E+00
  0.00000000E+00  0.00000000E+00  0.00000000E+00
  0.00000000E+00  0.00000000E+00  0.00000000E+00
  0.00000000E+00  0.00000000E+00  0.00000000E+00
  0.00000000E+00  0.00000000E+00  0.00000000E+00
  0.00000000E+00  0.00000000E+00  0.00000000E+00
  0.00000000E+00  0.00000000E+00  0.00000000E+00
  0.00000000E+00  0.00000000E+00  0.00000000E+00
  0.00000000E+00  0.00000000E+00  0.00000000E+00
  0.00000000E+00  0.00000000E+00  0.00000000E+00
  0.00000000E+00  0.00000000E+00  0.00000000E+00
  0.00000000E+00  0.00000000E+00  0.00000000E+00
  0.00000000E+00  0.00000000E+00  0.00000000E+00
  0.00000000E+00  0.00000000E+00  0.00000000E+00
  0.00000000E+00  0.00000000E+00  0.00000000E+00
  0.00000000E+00  0.00000000E+00  0.00000000E+00
  0.00000000E+00  0.00000000E+00  0.00000000E+00
  0.00000000E+00  0.00000000E+00  0.00000000E+00
  0.00000000E+00  0.00000000E+00  0.00000000E+00
  0.00000000E+00  0.00000000E+00  0.00000000E+00
  0.00000000E+00  0.00000000E+00  0.00000000E+00
  0.00000000E+00  0.00000000E+00  0.00000000E+00
  0.00000000E+00  0.00000000E+00  0.00000000E+00
  0.00000000E+00  0.00000000E+00  0.00000000E+00
  0.00000000E+00  0.00000000E+00  0.00000000E+00
  0.00000000E+00  0.00000000E+00  0.00000000E+00
  0.00000000E+00  0.00000000E+00  0.00000000E+00
  0.00000000E+00  0.00000000E+00  0.00000000E+00
  0.00000000E+00  0.00000000E+00  0.00000000E+00
  0.00000000E+00  0.00000000E+00  0.00000000E+00
  0.00000000E+00  0.00000000E+00  0.00000000E+00
  0.00000000E+00  0.00000000E+00  0.00000000E+00
  0.00000000E+00  0.00000000E+00  0.00000000E+00
  0.00000000E+00  0.00000000E+00  0.00000000E+00
  0.00000000E+00  0.00000000E+00  0.00000000E+00
  0.00000000E+00  0.00000000E+00  0.00000000E+00
  0.00000000E+00  0.00000000E+00  0.00000000E+00
  0.00000000E+00  0.00000000E+00  0.00000000E+00
  0.00000000E+00  0.00000000E+00  0.00000000E+00
  0.00000000E+00  0.00000000E+00  0.00000000E+00
  0.00000000E+00  0.00000000E+00  0.00000000E+00
  0.00000000E+00  0.00000000E+00  0.00000000E+00
  0.00000000E+00  0.00000000E+00  0.00000000E+00
