POSCAR file written by OVITO Basic 3.5.4
1
9.1252390349 0.0 0.0
0.0 9.1823315464 0.0
0.0 0.0 11.0
P 
42 
Direct
0.6657878033 0.9766943976 0.5974969385
0.7860807086 0.3449335083 0.6348544021
0.9578324146 0.7353700245 0.2391211588
0.9578313889 0.2646295749 0.760870484
0.2103119397 0.9819204168 0.2367841918
0.2103118744 0.0180795537 0.7632077351
0.0407882488 0.9056324393 0.3631615115
0.040788013 0.0943671098 0.6368309463
0.3108170173 0.157004985 0.3446989026
0.3108159228 0.8429948901 0.6552932604
0.4811544087 0.2127221627 0.2097177621
0.4811531749 0.7872771039 0.7902734523
0.5373880876 0.3828505301 0.3435387088
0.5373880049 0.6171482122 0.6564540739
0.714035499 0.4845535763 0.2380560973
0.7140357169 0.5154460096 0.761936119
0.6000468039 0.8367621789 0.1443718435
0.6000454757 0.163238846 0.8556188715
0.8332056899 0.8608892813 0.0927035185
0.8332040172 0.13910866 0.9072851142
0.853775427 0.0924143519 0.1472882988
0.8537761581 0.9075839498 0.852702724
0.0834823955 0.1038937309 0.0882225893
0.0834822748 0.896106765 0.9117686852
0.1279620029 0.3351760006 0.1236417053
0.127961434 0.6648244179 0.876349587
0.3569390676 0.3359183586 0.0593799413
0.3569383253 0.6640815309 0.9406101633
0.3582284134 0.5637327275 0.1229447722
0.3582287058 0.4362672624 0.8770466202
0.5911676986 0.6077118295 0.0875313532
0.5911681006 0.3922883332 0.9124600602
0.597844774 0.8037674944 0.3435502635
0.5978434413 0.1962350535 0.6564413591
0.8879798555 0.0921752106 0.3467232362
0.8879813286 0.9078241792 0.6532684362
0.1637865202 0.350969099 0.3246825171
0.1637857237 0.6490313663 0.6753093547
0.3414575939 0.5279584447 0.3242140385
0.3414567848 0.4720417587 0.6757779195
0.6657878261 0.0233075385 0.4025014713
0.7860809261 0.6550671272 0.3651373236
