POSCAR file written by OVITO Basic 3.5.4
1
9.84 0.0 0.0
-4.92 8.52169 0.0
0.0 0.0 30.0
O Si H C 
64 32 16 32 
Direct
0.3662 0.073 0.09863
0.427 0.2932 0.15869
0.1338 0.2068 0.1416
0.073 0.3662 0.08154
0.8662 0.073 0.09863
0.927 0.2932 0.15869
0.6338 0.2068 0.1416
0.573 0.3662 0.08154
0.3662 0.573 0.09863
0.427 0.7932 0.15869
0.1338 0.7068 0.1416
0.073 0.8662 0.08154
0.8662 0.573 0.09863
0.927 0.7932 0.15869
0.6338 0.7068 0.1416
0.573 0.8662 0.08154
0.2068 0.1338 0.21875
0.3662 0.073 0.27881
0.427 0.2932 0.33886
0.1338 0.2068 0.32177
0.073 0.3662 0.26171
0.2932 0.427 0.20166
0.7068 0.1338 0.21875
0.8662 0.073 0.27881
0.927 0.2932 0.33886
0.6338 0.2068 0.32177
0.573 0.3662 0.26171
0.7932 0.427 0.20166
0.2068 0.6338 0.21875
0.3662 0.573 0.27881
0.427 0.7932 0.33886
0.1338 0.7068 0.32177
0.073 0.8662 0.26171
0.2932 0.927 0.20166
0.7068 0.6338 0.21875
0.8662 0.573 0.27881
0.927 0.7932 0.33886
0.6338 0.7068 0.32177
0.573 0.8662 0.26171
0.7932 0.927 0.20166
0.2068 0.1338 0.39892
0.3662 0.073 0.45898
0.427 0.2932 0.51904
0.1338 0.2068 0.50194
0.073 0.3662 0.44189
0.2932 0.427 0.38183
0.7068 0.1338 0.39892
0.8662 0.073 0.45898
0.927 0.2932 0.51904
0.6338 0.2068 0.50194
0.573 0.3662 0.44189
0.7932 0.427 0.38183
0.2068 0.6338 0.39892
0.3662 0.573 0.45898
0.427 0.7932 0.51904
0.1338 0.7068 0.50194
0.073 0.8662 0.44189
0.2932 0.927 0.38183
0.7068 0.6338 0.39892
0.8662 0.573 0.45898
0.927 0.7932 0.51904
0.6338 0.7068 0.50194
0.573 0.8662 0.44189
0.7932 0.927 0.38183
0.23505 0.0 0.06006
6.9388939039e-17 0.23505 0.12012
0.73505 0.0 0.06006
0.5 0.23505 0.12012
0.23505 0.5 0.06006
5.5511151231e-17 0.73505 0.12012
0.73505 0.5 0.06006
0.5 0.73505 0.12012
0.23505 0.0 0.24023
6.9388939039e-17 0.23505 0.30029
0.26495 0.26495 0.18017
0.73505 0.0 0.24023
0.5 0.23505 0.30029
0.76495 0.26495 0.18017
0.23505 0.5 0.24023
5.5511151231e-17 0.73505 0.30029
0.26495 0.76495 0.18017
0.73505 0.5 0.24023
0.5 0.73505 0.30029
0.76495 0.76495 0.18017
0.23505 0.0 0.4204
6.9388939039e-17 0.23505 0.48046
0.26495 0.26495 0.36035
0.73505 0.0 0.4204
0.5 0.23505 0.48046
0.76495 0.26495 0.36035
0.23505 0.5 0.4204
5.5511151231e-17 0.73505 0.48046
0.26495 0.76495 0.36035
0.73505 0.5 0.4204
0.5 0.73505 0.48046
0.76495 0.76495 0.36035
0.21064 0.13031 0.03985
0.28813 0.92705 0.02336
0.71064 0.13031 0.03985
0.78813 0.92705 0.02336
0.21064 0.63031 0.03985
0.28813 0.42705 0.02336
0.71064 0.63031 0.03985
0.78813 0.42705 0.02336
0.52357 0.39246 0.53747
0.18642 0.28533 0.53116
0.02357 0.39246 0.53747
0.68642 0.28533 0.53116
0.52357 0.89246 0.53747
0.18642 0.78533 0.53116
0.02357 0.89246 0.53747
0.68642 0.78533 0.53116
0.0 0.0 0.6457
0.1666666666 0.083333333 0.6457
-3.9311449929e-10 0.2499999992 0.6457
0.1666666662 0.3333333323 0.6457
-7.8622899857e-10 0.4999999984 0.6457
0.1666666658 0.5833333315 0.6457
-1.1793435672e-09 0.7499999976 0.6457
0.1666666654 0.8333333307 0.6457
0.25 0.0 0.6457
0.4166666666 0.083333333 0.6457
0.2499999996 0.2499999992 0.6457
0.4166666662 0.3333333323 0.6457
0.2499999992 0.4999999984 0.6457
0.4166666658 0.5833333315 0.6457
0.2499999988 0.7499999976 0.6457
0.4166666654 0.8333333307 0.6457
0.5 0.0 0.6457
0.6666666666 0.083333333 0.6457
0.4999999996 0.2499999992 0.6457
0.6666666662 0.3333333323 0.6457
0.4999999992 0.4999999984 0.6457
0.6666666658 0.5833333315 0.6457
0.4999999988 0.7499999976 0.6457
0.6666666654 0.8333333307 0.6457
0.75 0.0 0.6457
0.9166666666 0.083333333 0.6457
0.7499999996 0.2499999992 0.6457
0.9166666662 0.3333333323 0.6457
0.7499999992 0.4999999984 0.6457
0.9166666658 0.5833333315 0.6457
0.7499999988 0.7499999976 0.6457
0.9166666654 0.8333333307 0.6457
